Unnamed: 0,Duration..in.seconds.,RecordedDate,UserLanguage,Dem_age,Dem_gender,Dem_edu,Dem_edu_mom,Dem_employment,Country,Dem_Expat,Dem_state,Dem_maritalstatus,Dem_dependents,Dem_riskgroup,Dem_islolation,Dem_isolation_adults,Dem_isolation_kids,AD_gain,AD_loss,AD_check,Scale_PSS10_UCLA_1,Scale_PSS10_UCLA_2,Scale_PSS10_UCLA_3,Scale_PSS10_UCLA_4,Scale_PSS10_UCLA_5,Scale_PSS10_UCLA_6,Scale_PSS10_UCLA_7,Scale_PSS10_UCLA_8,Scale_PSS10_UCLA_9,Scale_PSS10_UCLA_10,Scale_Lon_1,Scale_Lon_2,Scale_Lon_3,OECD_people_1,OECD_people_2,OECD_insititutions_1,OECD_insititutions_2,OECD_insititutions_3,OECD_insititutions_4,OECD_insititutions_5,OECD_insititutions_6,Corona_concerns_1,Corona_concerns_2,Corona_concerns_3,Corona_concerns_4,Corona_concerns_5,Trust_countrymeasure,Compliance_1,Compliance_2,Compliance_3,Compliance_4,Compliance_5,Compliance_6,BFF_15_1,BFF_15_2,BFF_15_3,BFF_15_4,BFF_15_5,BFF_15_6,BFF_15_7,BFF_15_8,BFF_15_9,BFF_15_10,BFF_15_11,BFF_15_12,BFF_15_13,BFF_15_14,BFF_15_15,Expl_Distress_1,Expl_Distress_2,Expl_Distress_3,Expl_Distress_4,Expl_Distress_5,Expl_Distress_6,Expl_Distress_7,Expl_Distress_8,Expl_Distress_9,Expl_Distress_10,Expl_Distress_11,Expl_Distress_12,Expl_Distress_13,Expl_Distress_14,Expl_Distress_15,Expl_Distress_16,Expl_Distress_17,Expl_Distress_18,Expl_Distress_19,Expl_Distress_20,Expl_Distress_21,Expl_Distress_22,Expl_Distress_23,Expl_Distress_24,Expl_Distress_txt,SPS_1,SPS_2,SPS_3,SPS_4,SPS_5,SPS_6,SPS_7,SPS_8,SPS_9,SPS_10,Expl_Coping_1,Expl_Coping_2,Expl_Coping_3,Expl_Coping_4,Expl_Coping_5,Expl_Coping_6,Expl_Coping_7,Expl_Coping_8,Expl_Coping_9,Expl_Coping_10,Expl_Coping_11,Expl_Coping_12,Expl_Coping_13,Expl_Coping_14,Expl_Coping_15,Expl_Coping_16,Expl_coping_txt,Expl_media_1,Expl_media_2,Expl_media_3,Expl_media_4,Expl_media_5,Expl_media_6,Final_open,PSS10_avg,Lon_avg,neu,ext,ope,agr,con,SPS_avg
118,2611,2020-04-26 14:36:07,EN,18,Female,Up to 12 years of school,College degree,Student,United States,no,Texas,Single,0.0,Yes,Life carries on with minor changes,4.0,0.0,,Program D,No,2.0,1.0,2.0,4.0,4.0,2.0,5.0,3.0,1.0,2.0,1.0,1.0,2.0,6.0,10.0,7.0,8.0,7.0,5.0,6.0,7.0,2.0,2.0,2.0,5.0,5.0,6.0,6.0,5.0,4.0,1.0,4.0,1.0,1.0,2.0,4.0,5.0,5.0,2.0,5.0,5.0,5.0,4.0,4.0,3.0,2.0,4.0,4.0,99.0,2.0,99.0,99.0,4.0,6.0,4.0,3.0,99.0,2.0,4.0,2.0,1.0,4.0,2.0,4.0,4.0,2.0,2.0,2.0,1.0,1.0,4.0,1.0,I am distressed over College orientation/college introductions moving on online,6.0,5.0,6.0,6.0,6.0,5.0,6.0,6.0,5.0,6.0,4.0,5.0,5.0,5.0,5.0,4.0,2.0,2.0,6.0,2.0,2.0,5.0,4.0,4.0,2.0,5.0,Pets make quarantine better,4.0,2.0,4.0,4.0,2.0,4.0,Thanks for doing this <U+0001F60A><U+2764><U+FE0F>,1.8,1.33333333333333,2.0,5.0,5.0,3.33333333333333,3.0,5.7
225,3118,2020-04-25 22:59:18,EN,20,Female,"College degree, bachelor, master",College degree,Not employed,United States,no,Texas,Single,0.0,Yes,Isolated,2.0,0.0,,Program D,No,3.0,2.0,3.0,3.0,4.0,3.0,4.0,3.0,4.0,3.0,4.0,3.0,4.0,2.0,10.0,5.0,4.0,4.0,,3.0,,6.0,6.0,6.0,6.0,6.0,0.0,5.0,6.0,6.0,3.0,1.0,3.0,4.0,3.0,4.0,6.0,4.0,3.0,4.0,4.0,4.0,3.0,6.0,6.0,4.0,3.0,6.0,6.0,4.0,1.0,4.0,6.0,3.0,4.0,4.0,2.0,4.0,4.0,4.0,3.0,4.0,6.0,5.0,3.0,4.0,4.0,4.0,5.0,3.0,5.0,3.0,,6.0,6.0,4.0,4.0,5.0,4.0,6.0,6.0,4.0,6.0,4.0,4.0,5.0,2.0,4.0,3.0,2.0,2.0,6.0,4.0,4.0,4.0,5.0,4.0,6.0,4.0,,2.0,2.0,2.0,4.0,2.0,3.0,,2.8,3.66666666666667,3.33333333333333,4.66666666666667,4.0,5.33333333333333,4.66666666666667,5.1
338,923,2020-04-25 12:26:30,EN,21,Female,"Some College, short continuing education or equivalent",College degree,Not employed,United States,no,TX,Single,0.0,Yes,Life carries on with minor changes,5.0,0.0,Program B,,No,3.0,3.0,4.0,3.0,3.0,3.0,3.0,3.0,3.0,3.0,3.0,3.0,3.0,4.0,4.0,3.0,5.0,5.0,4.0,5.0,3.0,5.0,5.0,5.0,5.0,5.0,3.0,5.0,4.0,5.0,5.0,2.0,4.0,3.0,4.0,4.0,3.0,2.0,3.0,3.0,4.0,3.0,1.0,5.0,6.0,4.0,2.0,4.0,6.0,6.0,99.0,5.0,5.0,5.0,99.0,99.0,99.0,4.0,4.0,4.0,4.0,4.0,5.0,4.0,4.0,4.0,5.0,3.0,4.0,3.0,5.0,6.0,,5.0,5.0,5.0,5.0,4.0,4.0,5.0,5.0,5.0,5.0,2.0,3.0,4.0,4.0,3.0,4.0,2.0,2.0,4.0,5.0,4.0,4.0,5.0,5.0,3.0,3.0,,4.0,4.0,4.0,4.0,4.0,3.0,I was supposed to graduate from veterinary technician school & go to an externship & then get a job in my career and Im now worried that will be pushed back or wont happen this year.,3.1,3.0,3.33333333333333,3.0,3.33333333333333,5.66666666666667,4.33333333333333,4.8
341,1173,2020-04-25 12:01:33,EN,21,Male,"College degree, bachelor, master",Some College or equivalent,Student,United States,no,TX,Single,0.0,Yes,Isolated,2.0,0.0,Program A,,Not sure,2.0,2.0,4.0,5.0,4.0,3.0,5.0,3.0,3.0,4.0,2.0,3.0,5.0,5.0,7.0,6.0,6.0,6.0,7.0,7.0,7.0,5.0,6.0,5.0,6.0,5.0,4.0,5.0,5.0,5.0,3.0,3.0,2.0,5.0,4.0,5.0,5.0,4.0,3.0,4.0,4.0,5.0,2.0,5.0,5.0,5.0,1.0,5.0,99.0,4.0,99.0,6.0,5.0,5.0,4.0,4.0,99.0,5.0,5.0,5.0,5.0,5.0,6.0,5.0,4.0,3.0,4.0,4.0,2.0,2.0,5.0,3.0,,6.0,5.0,5.0,5.0,5.0,5.0,5.0,5.0,4.0,5.0,5.0,5.0,5.0,3.0,5.0,4.0,2.0,2.0,5.0,4.0,5.0,5.0,4.0,5.0,4.0,4.0,,4.0,2.0,3.0,4.0,5.0,4.0,,2.5,3.33333333333333,3.66666666666667,4.33333333333333,4.33333333333333,5.0,5.33333333333333,5.0
351,90144,2020-04-26 11:49:23,EN,21,Female,"Some College, short continuing education or equivalent",,Full time employed,United States,no,TX,Single,0.0,Yes,Life carries on with minor changes,4.0,0.0,,,,2.0,4.0,5.0,3.0,1.0,4.0,3.0,3.0,1.0,2.0,3.0,1.0,3.0,3.0,8.0,8.0,8.0,7.0,2.0,10.0,4.0,1.0,1.0,1.0,5.0,6.0,3.0,6.0,5.0,3.0,5.0,3.0,1.0,5.0,5.0,2.0,6.0,6.0,2.0,4.0,6.0,4.0,2.0,5.0,5.0,5.0,1.0,,99.0,6.0,99.0,99.0,1.0,1.0,1.0,1.0,99.0,4.0,1.0,1.0,1.0,1.0,4.0,2.0,1.0,4.0,5.0,1.0,1.0,1.0,1.0,1.0,"Doing homework outside an academic environment makes it difficult. I had to move with a friend/relative because my home sitution is not the safest environment for my mental health, making it difficult to study.The epidemic has made it difficult to stay focused on school while maneging mental health.",6.0,6.0,6.0,6.0,2.0,,6.0,5.0,4.0,6.0,2.0,6.0,2.0,,,4.0,,,5.0,4.0,2.0,2.0,5.0,5.0,,3.0,"The government is informing me what I should be doing to prevent the spread of the virus but this is not where struggle. I find it difficult sometimes to cope not being outside as often or talking to people. I am an extrovert so, I need to talk to people.It makes it harder to cope with my mental health. Usually hanggingout with people and being outside helped a lot but now I cannot do that.",5.0,3.0,1.0,1.0,1.0,1.0,"For me, it is learning to take care of my mental health while following state guidelines. Also, I am having money securities. Sometimes it can be difficult to focus on school while I have to worry about other things. I was already worried about these things before the virus but it made it a lot worse and difficult to cope. Now, I have shelter securities but good thing my friend is letting me live with her for a few months.",3.2,2.33333333333333,5.0,5.66666666666667,4.66666666666667,5.0,5.5,5.22222222222222
356,1075,2020-04-25 09:59:33,EN,65,Female,PhD/Doctorate,Up to 9 years of school,Full time employed,United States,no,OH,Divorced/widowed,0.0,Yes,Life carries on with minor changes,0.0,0.0,,Program D,No,2.0,3.0,1.0,5.0,4.0,2.0,4.0,4.0,2.0,1.0,1.0,1.0,3.0,7.0,10.0,8.0,9.0,9.0,9.0,4.0,9.0,5.0,5.0,5.0,3.0,4.0,7.0,5.0,5.0,5.0,5.0,4.0,4.0,2.0,2.0,5.0,3.0,2.0,5.0,4.0,5.0,2.0,2.0,5.0,3.0,5.0,3.0,5.0,5.0,2.0,99.0,1.0,2.0,2.0,1.0,2.0,5.0,6.0,5.0,6.0,5.0,5.0,1.0,5.0,3.0,2.0,2.0,4.0,4.0,2.0,2.0,99.0,,5.0,5.0,5.0,5.0,5.0,5.0,5.0,5.0,5.0,5.0,3.0,5.0,5.0,5.0,5.0,2.0,2.0,2.0,4.0,5.0,4.0,3.0,4.0,2.0,3.0,5.0,,5.0,4.0,5.0,5.0,5.0,5.0,Not,1.8,1.66666666666667,2.0,2.33333333333333,3.66666666666667,4.33333333333333,4.66666666666667,5.0
375,809,2020-04-25 07:27:54,EN,23,Female,"College degree, bachelor, master",College degree,Student,United States,no,Michigan,Married/cohabiting,0.0,Yes,Isolated,1.0,0.0,Program A,,No,4.0,4.0,4.0,2.0,3.0,4.0,2.0,2.0,4.0,4.0,3.0,3.0,3.0,3.0,8.0,1.0,1.0,3.0,3.0,8.0,2.0,5.0,5.0,5.0,5.0,5.0,2.0,4.0,5.0,5.0,3.0,5.0,2.0,5.0,5.0,3.0,4.0,2.0,4.0,5.0,5.0,5.0,3.0,5.0,5.0,4.0,4.0,5.0,5.0,5.0,99.0,5.0,3.0,4.0,3.0,5.0,99.0,5.0,5.0,5.0,5.0,5.0,5.0,5.0,3.0,4.0,5.0,3.0,5.0,3.0,5.0,4.0,,5.0,5.0,5.0,5.0,5.0,5.0,5.0,5.0,5.0,6.0,3.0,2.0,5.0,2.0,5.0,5.0,3.0,2.0,5.0,5.0,5.0,3.0,3.0,5.0,4.0,5.0,,4.0,5.0,5.0,4.0,2.0,2.0,,3.9,3.0,4.66666666666667,3.0,5.0,4.66666666666667,4.0,5.1
378,945,2020-04-25 07:18:43,EN,23,Female,"College degree, bachelor, master",College degree,Full time employed,United States,no,Ohio,Single,0.0,Yes,Life carries on with minor changes,1.0,0.0,,Program D,No,3.0,3.0,4.0,4.0,2.0,2.0,3.0,4.0,3.0,2.0,3.0,2.0,4.0,2.0,5.0,1.0,3.0,3.0,6.0,4.0,5.0,3.0,4.0,4.0,4.0,4.0,7.0,5.0,4.0,3.0,4.0,2.0,1.0,3.0,3.0,4.0,5.0,5.0,2.0,3.0,4.0,3.0,2.0,5.0,6.0,4.0,2.0,5.0,2.0,5.0,99.0,2.0,2.0,5.0,5.0,4.0,99.0,5.0,3.0,4.0,4.0,99.0,2.0,5.0,2.0,3.0,4.0,4.0,4.0,2.0,6.0,4.0,,5.0,5.0,5.0,6.0,6.0,5.0,5.0,6.0,6.0,5.0,4.0,5.0,5.0,4.0,3.0,5.0,1.0,1.0,6.0,6.0,2.0,4.0,5.0,4.0,5.0,4.0,,4.0,3.0,3.0,4.0,4.0,1.0,,2.8,3.0,3.0,5.0,3.33333333333333,5.33333333333333,4.66666666666667,5.4
466,719,2020-04-25 21:16:17,EN,36,Female,"College degree, bachelor, master",Up to 9 years of school,Student,United States,no,Ohio,Divorced/widowed,2.0,Yes,Life carries on with minor changes,4.0,2.0,,Program D,No,4.0,4.0,5.0,3.0,2.0,5.0,2.0,4.0,5.0,4.0,5.0,3.0,5.0,6.0,8.0,4.0,5.0,6.0,3.0,5.0,2.0,4.0,5.0,3.0,5.0,5.0,2.0,6.0,5.0,5.0,6.0,4.0,6.0,5.0,5.0,5.0,5.0,5.0,3.0,6.0,6.0,6.0,1.0,5.0,6.0,6.0,2.0,6.0,6.0,5.0,4.0,6.0,2.0,5.0,99.0,6.0,3.0,6.0,5.0,5.0,6.0,6.0,5.0,2.0,6.0,6.0,5.0,6.0,2.0,6.0,4.0,99.0,,5.0,4.0,6.0,6.0,6.0,5.0,6.0,6.0,6.0,5.0,3.0,4.0,5.0,5.0,5.0,2.0,2.0,2.0,6.0,4.0,5.0,6.0,5.0,3.0,1.0,2.0,,,,,,,,"Harder to live with my schizophrenic brother, because he is more paranoid than normal. Disrupts life and I dont feel as safe at home.",4.0,4.33333333333333,4.0,4.66666666666667,6.0,5.66666666666667,5.66666666666667,5.5
468,17231,2020-04-25 00:54:43,EN,37,Female,"College degree, bachelor, master",College degree,Full time employed,United States,no,OR,Married/cohabiting,0.0,No,Isolated in medical facility of similar location,1.0,0.0,Program B,,No,3.0,2.0,4.0,3.0,3.0,3.0,3.0,3.0,4.0,3.0,1.0,3.0,3.0,5.0,6.0,0.0,9.0,7.0,10.0,7.0,0.0,6.0,6.0,6.0,6.0,6.0,1.0,6.0,5.0,5.0,2.0,2.0,2.0,3.0,1.0,6.0,4.0,3.0,5.0,6.0,5.0,4.0,2.0,5.0,6.0,6.0,4.0,6.0,1.0,4.0,99.0,4.0,1.0,1.0,99.0,1.0,99.0,5.0,2.0,6.0,6.0,5.0,1.0,1.0,1.0,1.0,4.0,5.0,1.0,1.0,2.0,1.0,,5.0,5.0,5.0,5.0,4.0,5.0,2.0,5.0,5.0,5.0,1.0,1.0,4.0,5.0,4.0,4.0,2.0,2.0,5.0,5.0,4.0,5.0,5.0,5.0,3.0,5.0,,4.0,2.0,3.0,2.0,2.0,4.0,"I am an RN working in the hospital, direct patient facing. We have done all we can to prepare and provide measures and workflows to keep everyone safe so that we can continue to care for our patients, but seeing the actual effects of the coronavirus is impactful. We are putting our lives at risk. And to come home and see others turning this health crisis into a political argument is heartbreaking. To see people not taking this seriously and disregarding the seriousness of the situation... disregarding the measures in place to help protect their health and safety is heartbreaking. But we will still be here in the hospitals- waiting to care for those facing the consequences of poor decisions they and others make.",3.1,2.33333333333333,1.66666666666667,3.0,5.0,5.33333333333333,5.0,4.6
470,1737,2020-04-24 20:27:06,EN,61,Female,"College degree, bachelor, master",Some College or equivalent,Not employed,United States,no,,Married/cohabiting,0.0,Yes,Life carries on with minor changes,2.0,0.0,Program B,,No,1.0,2.0,1.0,5.0,5.0,1.0,5.0,5.0,2.0,1.0,1.0,1.0,2.0,4.0,7.0,5.0,7.0,7.0,9.0,6.0,4.0,3.0,3.0,3.0,5.0,5.0,4.0,5.0,5.0,5.0,1.0,3.0,4.0,5.0,4.0,5.0,3.0,2.0,5.0,4.0,5.0,5.0,2.0,5.0,5.0,5.0,2.0,5.0,2.0,2.0,99.0,6.0,4.0,4.0,5.0,2.0,99.0,6.0,1.0,4.0,4.0,2.0,99.0,4.0,3.0,1.0,2.0,2.0,3.0,2.0,5.0,1.0,,6.0,5.0,6.0,6.0,6.0,5.0,6.0,6.0,5.0,6.0,5.0,4.0,4.0,,,5.0,5.0,4.0,5.0,5.0,5.0,4.0,5.0,5.0,5.0,5.0,,4.0,4.0,2.0,4.0,5.0,5.0,,1.2,1.33333333333333,3.66666666666667,2.33333333333333,4.66666666666667,5.0,5.0,5.7
473,2075,2020-04-24 20:14:11,EN,37,Female,"College degree, bachelor, master",College degree,Retired,United States,no,MA,Married/cohabiting,1.0,Yes,Isolated,1.0,1.0,,Program D,No,3.0,2.0,3.0,3.0,2.0,2.0,3.0,4.0,2.0,2.0,1.0,2.0,2.0,7.0,10.0,4.0,4.0,4.0,3.0,4.0,1.0,4.0,4.0,4.0,6.0,6.0,1.0,6.0,5.0,5.0,4.0,5.0,3.0,2.0,1.0,5.0,3.0,5.0,3.0,4.0,5.0,3.0,3.0,4.0,4.0,4.0,2.0,5.0,2.0,2.0,3.0,2.0,2.0,4.0,99.0,3.0,3.0,5.0,5.0,2.0,1.0,5.0,2.0,2.0,3.0,2.0,5.0,2.0,2.0,3.0,3.0,6.0,,6.0,6.0,5.0,6.0,6.0,6.0,6.0,6.0,6.0,6.0,4.0,6.0,5.0,5.0,6.0,4.0,1.0,1.0,5.0,5.0,5.0,4.0,5.0,5.0,2.0,4.0,,3.0,5.0,4.0,4.0,3.0,4.0,,2.6,1.66666666666667,1.66666666666667,4.0,4.0,4.0,4.66666666666667,5.9
477,1654,2020-04-24 19:32:31,EN,66,Female,PhD/Doctorate,College degree,Retired,United States,no,Alabama,Married/cohabiting,0.0,Yes,Life carries on with minor changes,1.0,0.0,Program A,,No,3.0,3.0,3.0,4.0,3.0,3.0,4.0,4.0,3.0,2.0,1.0,2.0,2.0,5.0,8.0,6.0,8.0,8.0,7.0,5.0,8.0,6.0,6.0,6.0,6.0,6.0,5.0,5.0,6.0,5.0,4.0,1.0,5.0,2.0,2.0,4.0,4.0,6.0,2.0,4.0,6.0,1.0,1.0,5.0,6.0,5.0,5.0,5.0,4.0,99.0,99.0,4.0,4.0,6.0,6.0,4.0,99.0,6.0,6.0,6.0,6.0,6.0,99.0,5.0,3.0,3.0,4.0,5.0,5.0,5.0,6.0,1.0,,6.0,6.0,6.0,6.0,6.0,5.0,6.0,6.0,5.0,6.0,3.0,6.0,6.0,4.0,4.0,3.0,1.0,1.0,6.0,3.0,3.0,4.0,3.0,4.0,6.0,3.0,,4.0,3.0,3.0,3.0,3.0,5.0,Who is considered a safe person to be around?,2.6,1.66666666666667,2.33333333333333,5.0,3.66666666666667,5.66666666666667,4.0,5.8
478,1767,2020-04-24 19:20:39,EN,23,Female,"College degree, bachelor, master",College degree,Part time employed,United States,no,Ohio,Single,0.0,Yes,Life carries on with minor changes,1.0,0.0,,Program D,Yes,2.0,2.0,2.0,4.0,3.0,2.0,3.0,3.0,1.0,3.0,4.0,2.0,4.0,7.0,8.0,6.0,6.0,5.0,9.0,9.0,7.0,5.0,6.0,5.0,6.0,6.0,4.0,4.0,4.0,3.0,3.0,4.0,3.0,4.0,3.0,5.0,5.0,4.0,3.0,5.0,6.0,6.0,3.0,4.0,5.0,3.0,4.0,4.0,5.0,4.0,99.0,5.0,4.0,5.0,3.0,4.0,99.0,2.0,5.0,4.0,3.0,4.0,4.0,99.0,4.0,5.0,3.0,4.0,4.0,4.0,4.0,3.0,Weather or not Im currently making right choices,4.0,5.0,3.0,2.0,4.0,4.0,3.0,2.0,4.0,5.0,3.0,5.0,5.0,4.0,5.0,4.0,4.0,4.0,4.0,4.0,4.0,4.0,3.0,5.0,3.0,3.0,,5.0,4.0,4.0,4.0,4.0,3.0,Working on long forgotten projects/ crafts has helped. As well as trying to learn something new for the first time.,2.3,3.33333333333333,3.0,4.33333333333333,5.66666666666667,4.33333333333333,3.33333333333333,3.6
479,1306,2020-04-24 19:09:14,EN,21,Female,"Some College, short continuing education or equivalent",Up to 12 years of school,Student,United States,no,Ohio,Single,0.0,Yes,Isolated,3.0,0.0,Program B,,No,3.0,4.0,4.0,4.0,3.0,2.0,3.0,2.0,3.0,3.0,3.0,4.0,5.0,7.0,9.0,6.0,8.0,5.0,8.0,7.0,8.0,4.0,5.0,4.0,4.0,4.0,5.0,4.0,5.0,3.0,4.0,2.0,2.0,5.0,6.0,4.0,5.0,2.0,5.0,4.0,4.0,2.0,5.0,5.0,5.0,4.0,4.0,4.0,2.0,5.0,99.0,3.0,2.0,5.0,5.0,5.0,99.0,5.0,4.0,3.0,3.0,5.0,5.0,5.0,3.0,5.0,4.0,3.0,2.0,3.0,6.0,1.0,,4.0,4.0,5.0,5.0,5.0,4.0,5.0,4.0,3.0,5.0,3.0,4.0,4.0,2.0,3.0,3.0,2.0,2.0,4.0,4.0,2.0,2.0,3.0,3.0,4.0,3.0,,2.0,3.0,2.0,4.0,3.0,1.0,,3.1,4.0,4.66666666666667,3.0,3.33333333333333,4.0,3.66666666666667,4.4
480,1268,2020-04-24 19:05:34,EN,22,Male,"College degree, bachelor, master",Up to 12 years of school,Full time employed,United States,no,Ohio,Single,0.0,Yes,Isolated,3.0,0.0,Program B,,Yes,1.0,2.0,2.0,4.0,3.0,1.0,5.0,4.0,1.0,1.0,1.0,1.0,2.0,3.0,9.0,1.0,3.0,3.0,7.0,7.0,1.0,1.0,4.0,6.0,5.0,4.0,2.0,6.0,4.0,4.0,1.0,3.0,2.0,5.0,2.0,6.0,2.0,4.0,2.0,3.0,5.0,3.0,1.0,6.0,6.0,4.0,4.0,5.0,1.0,4.0,99.0,3.0,3.0,5.0,99.0,1.0,99.0,4.0,2.0,5.0,6.0,5.0,5.0,3.0,2.0,1.0,2.0,2.0,1.0,1.0,4.0,1.0,I don't know if this is a general comments section but government trust questions could be broken down from Federal/State/Local if applicable. I have much more trust (about a 6 out of 10) in Ohio's handling of the virus than the Federal government's.,6.0,6.0,6.0,6.0,6.0,6.0,6.0,6.0,6.0,6.0,2.0,6.0,6.0,5.0,5.0,3.0,6.0,6.0,6.0,2.0,1.0,3.0,5.0,5.0,1.0,2.0,,1.0,4.0,4.0,3.0,1.0,2.0,I'm very surprised by the amount of people I see wearing masks. I've gone grocery shopping several times during isolation and maybe 75% of people are wearing masks while shopping. I'm quite interested in seeing how long people will continue to wear masks after isolation orders are lifted.,1.6,1.33333333333333,2.66666666666667,3.66666666666667,3.66666666666667,6.0,4.0,6.0
482,2243,2020-04-25 19:06:10,EN,27,Female,"College degree, bachelor, master",Some College or equivalent,Full time employed,United States,no,Ohio,Married/cohabiting,1.0,No,Life carries on with minor changes,1.0,1.0,Program A,,No,4.0,5.0,5.0,3.0,3.0,3.0,4.0,3.0,4.0,3.0,2.0,3.0,5.0,2.0,9.0,1.0,6.0,6.0,4.0,1.0,5.0,5.0,5.0,5.0,2.0,2.0,4.0,5.0,5.0,5.0,3.0,3.0,6.0,6.0,6.0,3.0,5.0,5.0,5.0,5.0,2.0,4.0,3.0,4.0,6.0,4.0,3.0,5.0,6.0,5.0,6.0,99.0,5.0,5.0,99.0,3.0,3.0,6.0,5.0,6.0,6.0,6.0,5.0,5.0,4.0,3.0,5.0,5.0,6.0,5.0,6.0,3.0,NOt ENOUGH PPE FOR NURSES!!!!!!!!,,,,,,,,,,,,,,,,,,,,,,,,,,,,,,,,,,,3.5,3.33333333333333,5.33333333333333,4.0,3.66666666666667,4.66666666666667,4.33333333333333,
483,1832,2020-04-24 18:49:06,EN,24,Female,"College degree, bachelor, master",Some College or equivalent,Full time employed,United States,no,Michigan,Single,0.0,Yes,Isolated,2.0,0.0,Program A,,No,4.0,4.0,5.0,3.0,2.0,4.0,3.0,3.0,4.0,3.0,4.0,3.0,3.0,7.0,8.0,7.0,9.0,7.0,9.0,9.0,6.0,5.0,4.0,4.0,5.0,5.0,5.0,5.0,6.0,6.0,4.0,4.0,3.0,3.0,4.0,3.0,6.0,6.0,1.0,4.0,3.0,4.0,1.0,4.0,5.0,5.0,2.0,5.0,2.0,5.0,99.0,2.0,4.0,6.0,6.0,5.0,99.0,6.0,3.0,6.0,6.0,5.0,4.0,5.0,4.0,6.0,6.0,5.0,2.0,5.0,6.0,3.0,,6.0,5.0,6.0,6.0,6.0,5.0,5.0,5.0,5.0,6.0,3.0,2.0,6.0,2.0,5.0,3.0,3.0,3.0,5.0,3.0,3.0,4.0,4.0,4.0,5.0,4.0,,4.0,2.0,1.0,3.0,4.0,1.0,,3.7,3.33333333333333,3.66666666666667,6.0,3.66666666666667,5.0,5.0,5.5
486,167,2020-04-25 17:55:33,EN,23,Female,"College degree, bachelor, master",College degree,Student,United States,no,Ohio,Single,0.0,Yes,Isolated,3.0,0.0,,Program D,,,,,,,,,,,,,,,,,,,,,,,,,,,,,,,,,,,,,,,,,,,,,,,,,,,,,,,,,,,,,,,,,,,,,,,,,,,,,,,,,,,,,,,,,,,,,,,,,,,,,,,,,,,,,,,,,,,,
491,763,2020-04-24 17:45:06,EN,18,Female,"Some College, short continuing education or equivalent",Some College or equivalent,Student,United States,no,TX,Single,0.0,Yes,Isolated,2.0,0.0,,Program D,No,2.0,2.0,3.0,4.0,3.0,2.0,3.0,3.0,3.0,2.0,3.0,1.0,2.0,3.0,8.0,1.0,4.0,4.0,6.0,10.0,1.0,5.0,6.0,4.0,4.0,4.0,2.0,6.0,6.0,5.0,1.0,2.0,6.0,5.0,4.0,4.0,6.0,5.0,2.0,5.0,6.0,5.0,2.0,6.0,5.0,4.0,3.0,6.0,99.0,4.0,99.0,1.0,5.0,4.0,99.0,5.0,99.0,5.0,5.0,5.0,6.0,5.0,4.0,3.0,4.0,2.0,1.0,6.0,5.0,1.0,2.0,5.0,,6.0,5.0,6.0,6.0,6.0,5.0,6.0,6.0,6.0,6.0,4.0,5.0,6.0,1.0,6.0,5.0,1.0,1.0,2.0,3.0,5.0,3.0,3.0,6.0,1.0,3.0,,2.0,6.0,6.0,3.0,6.0,5.0,I live in the south and there are many idiots who dont self isolate,2.5,2.0,4.0,5.33333333333333,5.33333333333333,5.33333333333333,4.66666666666667,5.8
492,649,2020-04-24 17:26:15,EN,19,Female,"College degree, bachelor, master",Up to 9 years of school,Full time employed,United States,no,Texas,Single,0.0,No,Life carries on as usual,0.0,0.0,Program A,,No,3.0,4.0,5.0,4.0,2.0,5.0,3.0,4.0,5.0,2.0,2.0,1.0,3.0,3.0,3.0,2.0,7.0,5.0,0.0,0.0,3.0,6.0,6.0,5.0,5.0,5.0,9.0,4.0,4.0,3.0,3.0,3.0,4.0,5.0,4.0,3.0,4.0,5.0,4.0,3.0,4.0,5.0,3.0,4.0,4.0,4.0,2.0,5.0,6.0,6.0,99.0,6.0,6.0,5.0,6.0,3.0,99.0,6.0,5.0,6.0,6.0,6.0,6.0,6.0,5.0,2.0,6.0,4.0,4.0,4.0,99.0,6.0,,5.0,5.0,5.0,6.0,6.0,6.0,5.0,6.0,6.0,5.0,4.0,5.0,5.0,5.0,6.0,6.0,1.0,2.0,4.0,5.0,4.0,4.0,5.0,6.0,6.0,6.0,,4.0,4.0,4.0,5.0,4.0,4.0,,3.5,2.0,4.33333333333333,4.0,4.0,4.0,4.66666666666667,5.5
494,137,2020-04-25 17:02:53,EN,24,Female,"College degree, bachelor, master",College degree,Full time employed,United States,no,OH,Single,0.0,No,Life carries on with minor changes,,,,Program C,,,,,,,,,,,,,,,,,,,,,,,,,,,,,,,,,,,,,,,,,,,,,,,,,,,,,,,,,,,,,,,,,,,,,,,,,,,,,,,,,,,,,,,,,,,,,,,,,,,,,,,,,,,,,,,,,,,,
497,916,2020-04-24 16:59:09,EN,30,Female,"College degree, bachelor, master",Some College or equivalent,Full time employed,United States,no,Michigan,Married/cohabiting,0.0,Yes,Isolated,1.0,0.0,,Program D,Not sure,4.0,4.0,5.0,3.0,2.0,3.0,2.0,3.0,5.0,4.0,3.0,4.0,4.0,5.0,7.0,4.0,4.0,6.0,6.0,7.0,4.0,6.0,6.0,6.0,6.0,6.0,0.0,5.0,5.0,5.0,6.0,4.0,4.0,5.0,5.0,3.0,5.0,4.0,3.0,3.0,4.0,3.0,3.0,4.0,5.0,5.0,2.0,4.0,2.0,4.0,99.0,6.0,2.0,6.0,5.0,4.0,99.0,4.0,5.0,6.0,6.0,6.0,4.0,4.0,5.0,5.0,4.0,4.0,5.0,5.0,6.0,3.0,,5.0,5.0,5.0,6.0,6.0,5.0,6.0,6.0,5.0,6.0,4.0,3.0,5.0,1.0,5.0,2.0,2.0,2.0,4.0,4.0,4.0,3.0,4.0,4.0,5.0,4.0,,5.0,4.0,5.0,5.0,6.0,2.0,My fiancé and I had to postpone our wedding,3.9,3.66666666666667,4.66666666666667,4.33333333333333,3.33333333333333,4.33333333333333,4.66666666666667,5.5
500,851,2020-04-24 16:40:16,EN,26,Female,PhD/Doctorate,PhD/Doctorate,Full time employed,United States,no,Ohio,Single,0.0,Yes,Life carries on as usual,1.0,0.0,,Program D,Not sure,4.0,2.0,5.0,4.0,3.0,3.0,3.0,4.0,5.0,2.0,4.0,3.0,3.0,6.0,8.0,3.0,5.0,5.0,6.0,6.0,2.0,5.0,6.0,5.0,4.0,4.0,1.0,4.0,5.0,5.0,2.0,2.0,4.0,5.0,4.0,5.0,4.0,2.0,6.0,3.0,3.0,3.0,4.0,4.0,5.0,5.0,2.0,5.0,99.0,99.0,99.0,99.0,3.0,4.0,6.0,99.0,99.0,5.0,5.0,5.0,5.0,5.0,99.0,99.0,4.0,5.0,99.0,4.0,5.0,4.0,5.0,99.0,"Im a retail pharmacist, biggest worry is coming in contact with an individual who has COVID-19, but doesnt know due to lack of testing and then possibly spreading the virus to others at home. Also being out in this has made me be the primary shopper for an aunt with leukemia, I just drop off the grocery bags on the front stoop and leave...no contact. Housemate works for a restaurant with limited income (carry-out/delivery only) and Im concerned about helping her with finances and paying off my large student debt.  Tough times for all!!!",4.0,4.0,4.0,5.0,4.0,4.0,3.0,5.0,4.0,5.0,3.0,5.0,4.0,5.0,,3.0,2.0,,4.0,5.0,3.0,4.0,5.0,4.0,5.0,4.0,,,4.0,,,,3.0,,3.1,3.33333333333333,3.66666666666667,2.33333333333333,3.0,4.0,5.0,4.2
509,1682,2020-04-24 15:55:37,EN,25,Male,"Some College, short continuing education or equivalent",Up to 12 years of school,Full time employed,United States,no,Michigan,Single,0.0,Yes,Isolated,3.0,0.0,Program A,,Yes,3.0,4.0,4.0,3.0,3.0,4.0,4.0,2.0,3.0,3.0,5.0,3.0,4.0,6.0,8.0,0.0,7.0,,6.0,10.0,0.0,4.0,5.0,4.0,6.0,5.0,0.0,6.0,5.0,5.0,5.0,2.0,3.0,4.0,6.0,6.0,6.0,2.0,4.0,4.0,5.0,6.0,3.0,5.0,6.0,5.0,4.0,6.0,4.0,6.0,99.0,4.0,4.0,6.0,3.0,2.0,99.0,5.0,2.0,4.0,5.0,6.0,2.0,4.0,2.0,6.0,5.0,2.0,4.0,2.0,4.0,2.0,"The US president just suggested people inject themselves with cleaning solution. Not sure how to quantify it, but it's... Very distressing the incompetence at the federal level. I should also specify, I am confident in my states' handling of the pandemic, where it does not differentiate earlier in the survey",5.0,5.0,5.0,6.0,6.0,5.0,4.0,6.0,5.0,4.0,4.0,5.0,6.0,5.0,6.0,5.0,6.0,6.0,6.0,5.0,3.0,4.0,3.0,6.0,4.0,2.0,,1.0,3.0,3.0,4.0,1.0,1.0,"My car was broken into (no damage or things stolen, thankfully), it has not concerned me to much. I have been substantially distressed over how many friends/acquaintances (~7 people) have either posted or directly advocated for factually incorrect positions, like equating covid19 to the flu, not taking it seriously, etc.",3.3,4.0,3.66666666666667,3.66666666666667,5.0,5.0,4.66666666666667,5.1
511,1010,2020-04-24 15:33:01,EN,29,Female,"College degree, bachelor, master",College degree,Student,United States,no,Michigan,Married/cohabiting,0.0,Yes,Isolated,1.0,0.0,Program A,,No,3.0,3.0,5.0,3.0,3.0,3.0,3.0,4.0,2.0,4.0,3.0,3.0,4.0,7.0,9.0,5.0,4.0,5.0,5.0,9.0,2.0,4.0,6.0,6.0,6.0,6.0,0.0,6.0,6.0,6.0,2.0,3.0,3.0,5.0,5.0,4.0,5.0,6.0,2.0,6.0,5.0,5.0,3.0,5.0,5.0,5.0,2.0,5.0,5.0,5.0,99.0,5.0,2.0,2.0,1.0,3.0,99.0,5.0,4.0,6.0,6.0,6.0,5.0,2.0,2.0,5.0,4.0,6.0,4.0,4.0,6.0,1.0,,6.0,6.0,6.0,6.0,6.0,5.0,6.0,6.0,6.0,6.0,2.0,1.0,6.0,1.0,6.0,5.0,5.0,5.0,5.0,5.0,6.0,5.0,5.0,5.0,1.0,4.0,,2.0,6.0,6.0,6.0,1.0,3.0,"I live with a partner that has a congenital heart disorder and was recently laid off due to decreased work. Because of this, he cannot leave to go on our weekly grocery run and I need to be much more cautious when I am out. I experience extreme anxiety leading up to leaving the house for necessities and for days afterwards in case I have somehow brought the virus home with me.",3.1,3.33333333333333,4.33333333333333,5.33333333333333,5.33333333333333,4.66666666666667,5.0,5.9
513,223,2020-04-25 15:11:56,EN,23,Male,"College degree, bachelor, master",College degree,Full time employed,United States,no,Ohio,Married/cohabiting,1.0,Yes,Life carries on with minor changes,5.0,0.0,,Program D,No,1.0,1.0,3.0,4.0,4.0,3.0,4.0,4.0,,1.0,1.0,1.0,2.0,,,,,,,,,,,,,,,,,,,,,,,,,,,,,,,,,,,,,,,,,,,,,,,,,,,,,,,,,,,,,,,,,,,,,,,,,,,,,,,,,,,,,,,,,,,,,,,1.88888888888889,1.33333333333333,,,,,,
518,658,2020-04-24 14:58:22,EN,23,Female,"College degree, bachelor, master",College degree,Student,United States,no,MI,Single,0.0,Yes,Isolated,0.0,0.0,Program B,,No,3.0,2.0,3.0,4.0,3.0,3.0,4.0,3.0,2.0,2.0,3.0,3.0,4.0,7.0,9.0,4.0,6.0,6.0,9.0,10.0,3.0,3.0,3.0,2.0,6.0,6.0,4.0,5.0,4.0,5.0,2.0,4.0,2.0,5.0,5.0,4.0,5.0,4.0,2.0,4.0,4.0,2.0,2.0,5.0,6.0,5.0,2.0,5.0,1.0,1.0,1.0,1.0,2.0,5.0,1.0,1.0,1.0,4.0,4.0,2.0,3.0,2.0,1.0,1.0,4.0,3.0,4.0,1.0,3.0,1.0,5.0,2.0,,6.0,5.0,6.0,6.0,6.0,6.0,6.0,6.0,6.0,6.0,4.0,1.0,5.0,1.0,5.0,1.0,4.0,6.0,5.0,5.0,2.0,4.0,3.0,5.0,1.0,4.0,,2.0,2.0,2.0,2.0,2.0,2.0,,2.5,3.33333333333333,4.33333333333333,4.66666666666667,3.33333333333333,5.33333333333333,5.0,5.9
593,1336,2020-04-24 10:15:21,EN,31,Male,PhD/Doctorate,Up to 9 years of school,Full time employed,United States,no,"Dallas, Texas",Divorced/widowed,0.0,Yes,Isolated,2.0,0.0,,Program C,No,3.0,1.0,2.0,5.0,1.0,1.0,5.0,5.0,2.0,1.0,1.0,1.0,3.0,7.0,8.0,8.0,8.0,2.0,2.0,5.0,9.0,2.0,5.0,4.0,5.0,6.0,0.0,5.0,5.0,3.0,1.0,4.0,2.0,4.0,4.0,6.0,5.0,5.0,2.0,5.0,5.0,5.0,1.0,2.0,5.0,5.0,1.0,5.0,2.0,1.0,99.0,2.0,3.0,5.0,1.0,1.0,99.0,5.0,2.0,2.0,4.0,6.0,1.0,1.0,1.0,5.0,1.0,2.0,1.0,2.0,5.0,5.0,,6.0,6.0,6.0,6.0,6.0,6.0,6.0,6.0,6.0,6.0,4.0,2.0,6.0,6.0,5.0,4.0,1.0,1.0,6.0,4.0,1.0,5.0,6.0,5.0,1.0,5.0,,5.0,2.0,4.0,5.0,5.0,2.0,,1.8,1.66666666666667,3.0,5.0,5.0,4.33333333333333,5.33333333333333,6.0
839,3575,2020-04-23 17:05:22,CS,37,Female,"College degree, bachelor, master",Up to 12 years of school,Not employed,United States,yes,"Orange County, Kalifornie",Married/cohabiting,0.0,Yes,Isolated,,,Program B,,Yes,2.0,3.0,3.0,4.0,2.0,2.0,3.0,3.0,3.0,2.0,5.0,3.0,3.0,5.0,9.0,9.0,8.0,8.0,8.0,8.0,7.0,6.0,6.0,6.0,6.0,6.0,6.0,5.0,6.0,5.0,4.0,5.0,4.0,3.0,3.0,4.0,5.0,5.0,3.0,5.0,6.0,5.0,3.0,5.0,6.0,6.0,3.0,5.0,5.0,3.0,4.0,6.0,3.0,3.0,3.0,,99.0,4.0,3.0,6.0,6.0,6.0,3.0,3.0,99.0,4.0,3.0,4.0,5.0,2.0,4.0,6.0,,6.0,6.0,6.0,6.0,6.0,6.0,6.0,6.0,6.0,6.0,2.0,6.0,6.0,2.0,3.0,2.0,6.0,4.0,5.0,5.0,2.0,5.0,4.0,6.0,2.0,1.0,,5.0,1.0,1.0,3.0,3.0,4.0,Konecne mam cas sama na sebe a take mne prijde ze cas utika daleko rychleji nez za normalniho chodu. Budte zdravi.,2.7,3.66666666666667,3.0,4.66666666666667,5.33333333333333,5.0,5.0,6.0
955,2609,2020-04-23 12:39:59,EN,69,Female,"College degree, bachelor, master",Up to 12 years of school,Retired,United States,no,North Carolina,Divorced/widowed,0.0,Yes,Isolated,0.0,0.0,Program A,,Yes,3.0,3.0,3.0,4.0,3.0,3.0,4.0,3.0,4.0,3.0,3.0,3.0,3.0,5.0,10.0,0.0,5.0,0.0,0.0,7.0,0.0,5.0,5.0,5.0,6.0,6.0,0.0,6.0,6.0,6.0,1.0,4.0,2.0,4.0,4.0,5.0,6.0,6.0,2.0,6.0,6.0,4.0,2.0,5.0,6.0,6.0,1.0,5.0,99.0,99.0,99.0,99.0,99.0,6.0,99.0,99.0,99.0,5.0,5.0,4.0,4.0,5.0,99.0,4.0,99.0,4.0,99.0,5.0,2.0,1.0,5.0,99.0,"I am in contact with my family members who live away from me and they are all heeding the guidelines set by the CDCand WHO.  I am afraid of Trump and the people who follow him. In my most fearful moments, I think we could have a violent confrontation somewhere in the country.",6.0,6.0,6.0,6.0,6.0,6.0,6.0,6.0,6.0,6.0,1.0,4.0,6.0,1.0,5.0,5.0,1.0,1.0,6.0,5.0,6.0,6.0,2.0,6.0,4.0,6.0,"Since I am retired, I dont have work colleagues to interact with. I do sometimes get in touch with them.",2.0,5.0,4.0,4.0,4.0,5.0,"I do not trust Trump or our current government I trust the Democratic Party but am worried about the lack of bipartisanship. I read all I can from the NYTIMES , The Post , watch PBS NEWS and BBC NEWS. Thankfully, my family are all in agreement about Trump and we are all sensible about following guidelines for our health and safety. The thing I worry about all the time is Trump. Hes insane and no one will come out and say this. It reminds me of The Emperors New Clothes.   ",2.9,3.0,3.33333333333333,5.66666666666667,5.33333333333333,5.33333333333333,5.66666666666667,6.0
977,945,2020-04-24 11:30:13,EN,26,Female,"College degree, bachelor, master",College degree,Full time employed,United States,yes,NY,Single,0.0,Yes,Life carries on with minor changes,1.0,0.0,,Program D,No,3.0,4.0,3.0,3.0,2.0,4.0,2.0,3.0,2.0,2.0,2.0,4.0,3.0,5.0,7.0,7.0,6.0,6.0,5.0,6.0,4.0,5.0,5.0,5.0,4.0,5.0,3.0,4.0,5.0,5.0,2.0,2.0,2.0,4.0,3.0,6.0,5.0,5.0,3.0,4.0,6.0,5.0,2.0,5.0,5.0,3.0,4.0,5.0,2.0,3.0,99.0,2.0,5.0,2.0,2.0,5.0,99.0,2.0,5.0,5.0,5.0,5.0,2.0,2.0,2.0,2.0,2.0,2.0,2.0,2.0,2.0,5.0,,6.0,6.0,5.0,5.0,6.0,6.0,6.0,6.0,6.0,6.0,4.0,2.0,5.0,2.0,5.0,5.0,2.0,2.0,5.0,6.0,4.0,5.0,2.0,2.0,5.0,4.0,,2.0,4.0,4.0,4.0,4.0,5.0,,3.2,3.0,2.66666666666667,4.66666666666667,5.0,5.0,3.66666666666667,5.8
1446,3685,2020-04-23 16:53:27,EN,44,Male,"College degree, bachelor, master",College degree,Full time employed,United States,no,MA,Married/cohabiting,4.0,Yes,Life carries on with minor changes,1.0,0.0,,Program D,,,,,,,,,,,,,,,,,,,,,,,,,,,,,,,,,,,,,,,,,,,,,,,,,,,,,,,,,,,,,,,,,,,,,,,,,,,,,,,,,,,,,,,,,,,,,,,,,,,,,,,,,,,,,,,,,,,,
1520,1744,2020-04-22 11:37:13,EN,43,Female,"College degree, bachelor, master",PhD/Doctorate,Full time employed,United States,yes,,Married/cohabiting,0.0,Yes,Life carries on with minor changes,0.0,0.0,Program A,,No,3.0,1.0,1.0,5.0,4.0,2.0,5.0,4.0,1.0,1.0,1.0,1.0,2.0,6.0,7.0,0.0,2.0,1.0,2.0,9.0,0.0,5.0,5.0,5.0,5.0,5.0,0.0,6.0,5.0,6.0,1.0,2.0,5.0,2.0,2.0,6.0,1.0,3.0,5.0,4.0,5.0,2.0,4.0,4.0,3.0,5.0,4.0,5.0,1.0,1.0,99.0,4.0,1.0,1.0,1.0,99.0,99.0,4.0,99.0,3.0,3.0,2.0,3.0,99.0,1.0,1.0,1.0,1.0,3.0,2.0,1.0,4.0,,3.0,4.0,6.0,6.0,6.0,6.0,6.0,6.0,6.0,5.0,2.0,1.0,6.0,4.0,4.0,1.0,1.0,1.0,4.0,4.0,3.0,2.0,4.0,4.0,5.0,1.0,,1.0,4.0,6.0,2.0,2.0,3.0,,1.5,1.333333,1.666667,2.0,3.666667,3.333333,4.333333,5.4
1904,1350,2020-04-21 09:59:23,EN,84,Female,"College degree, bachelor, master",Up to 12 years of school,Retired,United States,no,Texas,Divorced/widowed,0.0,Yes,Life carries on with minor changes,0.0,0.0,,Program D,No,1.0,4.0,3.0,5.0,4.0,1.0,5.0,5.0,1.0,1.0,2.0,1.0,3.0,7.0,9.0,3.0,5.0,9.0,7.0,9.0,3.0,4.0,4.0,4.0,4.0,3.0,2.0,6.0,6.0,4.0,1.0,5.0,1.0,2.0,1.0,6.0,6.0,6.0,3.0,5.0,5.0,4.0,2.0,4.0,6.0,4.0,3.0,4.0,4.0,4.0,99.0,99.0,3.0,4.0,4.0,99.0,99.0,4.0,5.0,4.0,4.0,5.0,99.0,4.0,3.0,3.0,5.0,4.0,4.0,3.0,4.0,4.0,Play sports,5.0,6.0,5.0,6.0,5.0,6.0,6.0,5.0,4.0,6.0,3.0,4.0,6.0,6.0,6.0,2.0,2.0,2.0,6.0,6.0,5.0,6.0,5.0,4.0,5.0,2.0,,2.0,4.0,3.0,4.0,4.0,5.0,,1.6,2.0,1.333333,5.333333,4.666667,5.0,4.0,5.4
2145,1185,2020-04-20 17:38:36,FR,32,Female,"College degree, bachelor, master",College degree,Not employed,United States,yes,californie,Married/cohabiting,0.0,Yes,Life carries on with minor changes,1.0,0.0,,Program D,No,2.0,3.0,3.0,4.0,4.0,5.0,3.0,2.0,2.0,2.0,4.0,2.0,3.0,8.0,9.0,5.0,5.0,6.0,8.0,6.0,7.0,6.0,6.0,6.0,6.0,6.0,4.0,5.0,5.0,5.0,5.0,5.0,2.0,3.0,4.0,3.0,5.0,5.0,2.0,3.0,4.0,4.0,2.0,4.0,4.0,5.0,4.0,5.0,99.0,99.0,99.0,4.0,3.0,4.0,99.0,2.0,99.0,4.0,3.0,4.0,5.0,5.0,99.0,2.0,3.0,3.0,3.0,4.0,4.0,2.0,4.0,5.0,,5.0,4.0,5.0,5.0,5.0,4.0,5.0,5.0,3.0,5.0,3.0,4.0,5.0,4.0,4.0,2.0,1.0,1.0,4.0,3.0,4.0,2.0,4.0,4.0,1.0,4.0,question sur interaction en fac à face pas claire : interprétation face à face via réseau,3.0,3.0,3.0,3.0,3.0,3.0,première grossesse (nouvelle apprise au début du confinement),2.8,3.0,3.666667,5.0,3.666667,4.333333,4.333333,4.6
2153,1339,2020-04-21 17:11:27,EN,70,Female,"College degree, bachelor, master",Up to 12 years of school,Retired,United States,no,North Carolina,Married/cohabiting,0.0,Yes,Life carries on with minor changes,1.0,0.0,Program A,,No,3.0,1.0,2.0,5.0,3.0,2.0,4.0,3.0,2.0,2.0,1.0,3.0,3.0,6.0,7.0,5.0,5.0,5.0,7.0,7.0,2.0,4.0,4.0,4.0,5.0,5.0,6.0,5.0,5.0,4.0,2.0,4.0,4.0,4.0,2.0,5.0,3.0,4.0,4.0,4.0,4.0,4.0,,5.0,5.0,4.0,2.0,4.0,99.0,99.0,99.0,99.0,1.0,4.0,99.0,99.0,99.0,6.0,99.0,3.0,3.0,4.0,99.0,99.0,99.0,99.0,99.0,3.0,3.0,99.0,4.0,99.0,,5.0,4.0,4.0,4.0,3.0,3.0,3.0,5.0,4.0,5.0,3.0,2.0,4.0,4.0,3.0,3.0,2.0,2.0,3.0,4.0,4.0,4.0,4.0,2.0,4.0,2.0,,3.0,3.0,4.0,3.0,3.0,4.0,Good luck with your survey. Ill send it on to others.,2.1,2.333333,2.666667,3.333333,4.0,5.0,4.333333,4.0
2159,954,2020-04-21 16:36:24,EN,80,Female,"Some College, short continuing education or equivalent",Up to 9 years of school,Retired,United States,no,Wyomi g,Other or would rather not say,1.0,Yes,Isolated,0.0,,Program A,,No,1.0,2.0,1.0,1.0,2.0,1.0,5.0,5.0,2.0,1.0,1.0,1.0,1.0,8.0,9.0,1.0,6.0,7.0,7.0,9.0,1.0,6.0,5.0,6.0,6.0,6.0,1.0,6.0,6.0,1.0,1.0,3.0,2.0,5.0,1.0,5.0,4.0,2.0,6.0,3.0,5.0,4.0,3.0,6.0,5.0,2.0,3.0,5.0,99.0,99.0,99.0,99.0,4.0,99.0,99.0,99.0,99.0,4.0,2.0,2.0,6.0,3.0,99.0,4.0,4.0,1.0,6.0,4.0,2.0,1.0,4.0,1.0,Loo,2.0,5.0,5.0,5.0,5.0,5.0,4.0,5.0,4.0,2.0,1.0,5.0,6.0,4.0,6.0,3.0,,,6.0,6.0,6.0,4.0,3.0,4.0,5.0,3.0,,2.0,5.0,4.0,6.0,4.0,6.0,,1.9,1.0,2.666667,2.333333,4.0,5.0,3.666667,4.2
2197,2507,2020-04-20 14:31:21,EN,73,Female,"College degree, bachelor, master",Up to 12 years of school,Self-employed,United States,no,North Carolina,Married/cohabiting,0.0,No,Life carries on with minor changes,1.0,0.0,,Program D,No,1.0,3.0,2.0,5.0,4.0,2.0,4.0,4.0,2.0,1.0,3.0,3.0,3.0,8.0,10.0,7.0,8.0,8.0,7.0,8.0,1.0,4.0,5.0,5.0,6.0,6.0,0.0,5.0,5.0,5.0,1.0,2.0,5.0,5.0,1.0,6.0,5.0,5.0,3.0,5.0,6.0,1.0,2.0,6.0,5.0,5.0,1.0,6.0,2.0,2.0,99.0,6.0,2.0,2.0,2.0,1.0,99.0,5.0,2.0,2.0,2.0,1.0,2.0,2.0,1.0,3.0,2.0,1.0,2.0,1.0,2.0,6.0,"Truly most distressed over the total lack of planning by President's administration and its distain for the populace.  The lack of testing is what depresses me because without it, I don't see any way to feel secure about being out in lublic. And to see division and rebellion within the countryand between states being fueled by the President means chaos will reign.",6.0,4.0,5.0,6.0,6.0,5.0,6.0,6.0,5.0,6.0,1.0,4.0,6.0,4.0,6.0,1.0,1.0,1.0,4.0,5.0,4.0,2.0,5.0,6.0,6.0,2.0,,4.0,5.0,6.0,3.0,1.0,5.0,"I have become more disturbed than ever about the inequalities within societies everywhere as this disease has revealed.  The United States has been exposed, on the governmental level, as a sham democracy.  And this makes me feel more insecure than before.  On the other hand, my wellbeing has been impacted positively  by the altruism, generosity of spirit, and hugeness of effort by individual people demonstrated daily in the face of adversity.  What I want more than anything is for people to have a government that is as good as the souls of these people.  And in the USA, we don't have that.  Under our current President, we have as the Administration, souls who are ugly and without humanity.",1.8,3.0,2.333333,4.666667,4.0,5.333333,5.666667,5.5
2220,795,2020-04-20 12:55:40,EN,48,Male,"College degree, bachelor, master",College degree,Full time employed,United States,no,VA,Married/cohabiting,2.0,Yes,Life carries on with minor changes,2.0,0.0,,Program C,No,2.0,1.0,1.0,5.0,4.0,1.0,5.0,5.0,3.0,2.0,1.0,1.0,3.0,6.0,8.0,3.0,7.0,7.0,5.0,8.0,1.0,3.0,3.0,5.0,6.0,6.0,0.0,5.0,6.0,5.0,1.0,3.0,1.0,6.0,4.0,6.0,4.0,4.0,5.0,5.0,6.0,6.0,6.0,3.0,2.0,3.0,3.0,5.0,3.0,1.0,6.0,3.0,3.0,2.0,2.0,5.0,99.0,4.0,2.0,4.0,5.0,6.0,1.0,1.0,4.0,1.0,4.0,99.0,5.0,3.0,5.0,2.0,,4.0,4.0,2.0,5.0,6.0,5.0,5.0,5.0,6.0,4.0,3.0,4.0,4.0,2.0,4.0,4.0,3.0,3.0,4.0,3.0,4.0,4.0,3.0,4.0,1.0,3.0,,2.0,3.0,1.0,2.0,1.0,3.0,,1.5,1.666667,3.666667,3.333333,5.666667,2.0,4.0,4.6
2290,1263,2020-04-20 10:02:37,EN,66,Female,"Some College, short continuing education or equivalent",Some College or equivalent,Retired,United States,no,New Jersey,Divorced/widowed,0.0,Yes,Life carries on with minor changes,0.0,0.0,Program B,,No,2.0,2.0,2.0,5.0,4.0,2.0,5.0,5.0,2.0,1.0,2.0,3.0,2.0,7.0,9.0,6.0,9.0,8.0,9.0,2.0,8.0,5.0,6.0,5.0,5.0,5.0,8.0,6.0,6.0,6.0,3.0,4.0,2.0,3.0,4.0,5.0,5.0,5.0,3.0,4.0,5.0,4.0,2.0,5.0,6.0,6.0,2.0,6.0,99.0,99.0,99.0,99.0,4.0,5.0,2.0,99.0,99.0,5.0,2.0,5.0,5.0,4.0,99.0,99.0,2.0,4.0,4.0,3.0,5.0,1.0,4.0,1.0,,6.0,6.0,6.0,6.0,6.0,6.0,6.0,6.0,5.0,6.0,4.0,5.0,6.0,4.0,5.0,4.0,2.0,4.0,6.0,5.0,4.0,4.0,5.0,6.0,6.0,5.0,,4.0,3.0,4.0,4.0,4.0,4.0,,1.6,2.333333,3.0,4.666667,4.333333,5.333333,5.666667,5.9
2313,2777,2020-04-20 09:19:32,EN,75,Female,"College degree, bachelor, master",Some College or equivalent,Retired,United States,no,Ohio,Single,0.0,Yes,Isolated,0.0,0.0,,Program D,No,3.0,2.0,4.0,4.0,2.0,2.0,4.0,3.0,1.0,3.0,3.0,2.0,4.0,8.0,9.0,6.0,7.0,7.0,7.0,8.0,2.0,5.0,5.0,5.0,6.0,6.0,0.0,4.0,5.0,5.0,1.0,5.0,3.0,5.0,3.0,4.0,4.0,2.0,4.0,4.0,5.0,4.0,2.0,4.0,5.0,5.0,2.0,5.0,4.0,4.0,99.0,99.0,4.0,5.0,5.0,1.0,99.0,5.0,3.0,5.0,6.0,6.0,99.0,4.0,4.0,4.0,5.0,4.0,4.0,3.0,6.0,3.0,Not knowing what comes next.,5.0,4.0,6.0,5.0,5.0,4.0,4.0,5.0,5.0,5.0,4.0,5.0,5.0,,5.0,4.0,1.0,2.0,5.0,4.0,4.0,5.0,4.0,4.0,5.0,5.0,"Reading, Caring for my cats, feeding the birds",4.0,4.0,4.0,5.0,4.0,4.0,"My lack of confidence in our federal governments commitment to the people has not changed| on their other hand, my increasing confidence in our Governor and his Health Director has surprised and significantly encouraged me.",2.6,3.0,3.666667,3.0,4.333333,4.666667,5.0,4.8
2560,2043,2020-04-19 20:12:11,EN,38,Female,"College degree, bachelor, master",College degree,Full time employed,United States,no,Pennsylvania,Married/cohabiting,2.0,Yes,Isolated,1.0,2.0,,Program D,No,3.0,3.0,5.0,3.0,2.0,4.0,3.0,2.0,3.0,5.0,3.0,4.0,5.0,8.0,6.0,5.0,5.0,6.0,4.0,7.0,5.0,5.0,5.0,5.0,6.0,6.0,0.0,5.0,5.0,6.0,5.0,4.0,3.0,5.0,4.0,5.0,6.0,5.0,4.0,5.0,5.0,5.0,3.0,4.0,6.0,6.0,4.0,5.0,4.0,6.0,5.0,5.0,4.0,6.0,99.0,5.0,6.0,6.0,6.0,5.0,6.0,6.0,5.0,4.0,4.0,6.0,5.0,5.0,4.0,4.0,6.0,4.0,The stress of trying to do everything all the time for all the people in my home + my work and failing everybody.,5.0,5.0,5.0,5.0,5.0,5.0,5.0,6.0,5.0,5.0,4.0,2.0,6.0,2.0,4.0,6.0,1.0,1.0,6.0,6.0,4.0,5.0,5.0,5.0,1.0,2.0,,5.0,4.0,5.0,3.0,3.0,4.0,"Their is no national response in the United States. The response is different at every level and that causes its own additional stress, as does knowing that two states over having a completely different response could make the steps we are taking less effective.",3.7,4.0,3.666667,4.666667,5.0,4.666667,4.666667,5.1
2586,1056,2020-04-19 16:44:36,EN,35,Female,"College degree, bachelor, master",Some College or equivalent,Full time employed,United States,yes,Pennsylvania,Married/cohabiting,0.0,Yes,Isolated,1.0,0.0,Program A,,No,2.0,1.0,2.0,5.0,4.0,1.0,5.0,5.0,1.0,1.0,1.0,1.0,1.0,8.0,7.0,5.0,5.0,6.0,7.0,10.0,4.0,5.0,6.0,5.0,5.0,5.0,3.0,5.0,6.0,6.0,2.0,3.0,2.0,2.0,2.0,6.0,4.0,6.0,6.0,4.0,6.0,4.0,4.0,6.0,6.0,6.0,2.0,6.0,4.0,3.0,99.0,5.0,2.0,4.0,99.0,2.0,99.0,5.0,3.0,5.0,6.0,6.0,1.0,2.0,2.0,2.0,4.0,3.0,4.0,2.0,3.0,6.0,,6.0,6.0,5.0,6.0,6.0,6.0,6.0,6.0,6.0,6.0,4.0,6.0,4.0,2.0,2.0,1.0,1.0,1.0,4.0,5.0,2.0,5.0,2.0,6.0,1.0,4.0,,3.0,6.0,4.0,4.0,2.0,1.0,,1.3,1.0,1.666667,3.666667,4.666667,5.0,5.666667,5.9
2832,561,2020-04-19 06:57:20,EN,37,Male,"College degree, bachelor, master",College degree,Full time employed,United States,no,New york,Married/cohabiting,1.0,Yes,Isolated,1.0,1.0,Program A,,Yes,3.0,3.0,4.0,3.0,3.0,2.0,3.0,3.0,4.0,2.0,3.0,4.0,4.0,7.0,8.0,5.0,7.0,7.0,8.0,9.0,3.0,4.0,4.0,5.0,6.0,6.0,2.0,6.0,4.0,5.0,4.0,4.0,4.0,4.0,4.0,5.0,3.0,3.0,4.0,5.0,4.0,4.0,4.0,5.0,4.0,4.0,4.0,5.0,2.0,5.0,3.0,5.0,4.0,5.0,2.0,3.0,6.0,6.0,2.0,3.0,3.0,5.0,2.0,3.0,3.0,5.0,5.0,5.0,1.0,3.0,5.0,3.0,,5.0,5.0,5.0,5.0,6.0,5.0,4.0,5.0,5.0,5.0,4.0,5.0,5.0,2.0,5.0,3.0,4.0,4.0,4.0,4.0,4.0,4.0,4.0,4.0,2.0,4.0,,4.0,6.0,4.0,5.0,5.0,1.0,,3.0,3.666667,3.333333,3.0,4.333333,4.0,4.0,5.0
2848,396,2020-04-20 06:22:04,EN,51,Male,"College degree, bachelor, master",Up to 12 years of school,Full time employed,United States,no,Ohio,Other or would rather not say,0.0,Yes,Life carries on with minor changes,2.0,0.0,Program A,,No,4.0,3.0,4.0,3.0,3.0,2.0,3.0,3.0,4.0,3.0,3.0,2.0,2.0,3.0,7.0,3.0,5.0,6.0,6.0,7.0,2.0,5.0,5.0,5.0,5.0,5.0,0.0,4.0,5.0,5.0,2.0,3.0,2.0,,,,,,,,,,,,,,,,,,,,,,,,,,,,,,,,,,,,,,,,,,,,,,,,,,,,,,,,,,,,,,,,,,,,,,,,,,,3.2,2.333333,,,,,,
2863,1914,2020-04-19 06:31:31,EN,41,Female,"College degree, bachelor, master",Some College or equivalent,Part time employed,United States,no,Ohio,Single,0.0,Yes,Life carries on with minor changes,2.0,0.0,,Program C,No,3.0,1.0,2.0,5.0,4.0,1.0,4.0,5.0,3.0,2.0,3.0,2.0,3.0,8.0,9.0,1.0,2.0,3.0,0.0,5.0,0.0,4.0,5.0,6.0,6.0,6.0,0.0,6.0,5.0,5.0,1.0,1.0,2.0,3.0,3.0,5.0,5.0,2.0,5.0,5.0,3.0,6.0,4.0,5.0,5.0,3.0,5.0,5.0,5.0,3.0,99.0,4.0,4.0,2.0,1.0,5.0,99.0,4.0,2.0,4.0,4.0,6.0,99.0,2.0,2.0,4.0,1.0,2.0,3.0,2.0,2.0,4.0,,6.0,6.0,6.0,6.0,6.0,6.0,6.0,6.0,6.0,6.0,1.0,4.0,6.0,2.0,6.0,6.0,5.0,2.0,6.0,5.0,4.0,5.0,2.0,5.0,1.0,4.0,,2.0,4.0,6.0,3.0,5.0,2.0,,1.8,2.666667,2.666667,3.0,4.666667,4.333333,3.333333,6.0
2979,1126,2020-04-19 02:55:55,SV,54,Female,"College degree, bachelor, master",College degree,Full time employed,United States,yes,"BOSTON, Massachusetts",Married/cohabiting,3.0,Yes,Isolated,4.0,0.0,,,,2.0,3.0,3.0,4.0,4.0,1.0,4.0,4.0,2.0,2.0,2.0,2.0,2.0,9.0,9.0,1.0,8.0,6.0,9.0,9.0,1.0,3.0,4.0,4.0,5.0,5.0,1.0,5.0,5.0,6.0,4.0,5.0,4.0,2.0,2.0,5.0,6.0,6.0,2.0,3.0,6.0,3.0,1.0,4.0,6.0,5.0,1.0,6.0,2.0,3.0,3.0,5.0,2.0,6.0,99.0,2.0,99.0,6.0,2.0,4.0,3.0,4.0,1.0,5.0,1.0,3.0,5.0,5.0,4.0,2.0,5.0,5.0,,6.0,6.0,6.0,6.0,6.0,5.0,6.0,6.0,6.0,6.0,4.0,5.0,5.0,5.0,5.0,2.0,3.0,3.0,5.0,4.0,2.0,5.0,6.0,4.0,1.0,5.0,,3.0,6.0,4.0,4.0,1.0,4.0,,2.1,2.0,2.0,5.666667,4.0,5.333333,5.666667,5.9
3111,1377,2020-04-19 00:10:51,EN,46,Female,"Some College, short continuing education or equivalent",Up to 9 years of school,Full time employed,United States,no,Washington,Married/cohabiting,1.0,Yes,Life carries on with minor changes,1.0,0.0,Program A,,No,5.0,2.0,5.0,4.0,3.0,4.0,2.0,3.0,5.0,2.0,1.0,4.0,4.0,3.0,9.0,0.0,2.0,2.0,5.0,9.0,0.0,1.0,1.0,5.0,6.0,6.0,0.0,5.0,6.0,5.0,1.0,2.0,4.0,6.0,6.0,6.0,5.0,2.0,5.0,3.0,6.0,5.0,4.0,2.0,5.0,5.0,4.0,5.0,2.0,2.0,5.0,6.0,5.0,2.0,1.0,3.0,2.0,6.0,6.0,6.0,6.0,6.0,1.0,1.0,5.0,3.0,2.0,6.0,6.0,2.0,5.0,2.0,I dont have any children in isolation with me,6.0,2.0,5.0,6.0,6.0,5.0,6.0,6.0,5.0,6.0,1.0,1.0,6.0,1.0,5.0,4.0,1.0,1.0,5.0,6.0,4.0,2.0,2.0,5.0,5.0,4.0,,1.0,4.0,5.0,5.0,5.0,1.0,"I have never had less faith in our government than the current pandemic. the current president offers nothing but distrust, fear, and confusion. all I feel is utter lack of understanding, education, and compassion from our government during these horribly terrifying times. we deserve better.",3.5,3.0,4.333333,3.0,4.666667,3.333333,4.333333,5.3
3153,3764,2020-04-18 22:48:18,EN,69,Male,PhD/Doctorate,Some College or equivalent,Retired,United States,no,Illinois,Married/cohabiting,0.0,Yes,Life carries on with minor changes,1.0,0.0,Program A,,No,1.0,2.0,3.0,5.0,5.0,2.0,5.0,4.0,3.0,1.0,3.0,2.0,3.0,7.0,9.0,2.0,2.0,7.0,9.0,,2.0,6.0,6.0,6.0,6.0,6.0,0.0,5.0,6.0,6.0,5.0,4.0,2.0,6.0,4.0,5.0,6.0,4.0,5.0,5.0,6.0,4.0,1.0,5.0,6.0,5.0,2.0,5.0,2.0,2.0,99.0,99.0,2.0,6.0,5.0,1.0,99.0,6.0,4.0,6.0,5.0,6.0,99.0,4.0,4.0,5.0,4.0,2.0,2.0,2.0,6.0,5.0,,6.0,6.0,6.0,6.0,6.0,6.0,6.0,6.0,6.0,6.0,4.0,6.0,6.0,6.0,6.0,4.0,1.0,2.0,5.0,5.0,5.0,5.0,5.0,6.0,5.0,5.0,,5.0,6.0,5.0,5.0,3.0,4.0,"I am retired and receiving social security payments as well as four different pension plans.  My wife is still employed as a family physician and she has two substantial 401k plans (personal contributions to mutual fund retirements funds with a partial match from her employers as well as social security payments and a defined benefit pension plan when she actually retires.  She does not plan to retire for at least three years.  She loves her job and has an excellent work situation as a physician and a faculty member of a major medical university.  I also have a strong musical interest and significant competence in playing Irish and old time American fiddle music|  Irish music on the bouzouki| singing Irish, American, British, and Scottish folk songs accompanied by my playing the guitar| Irish concertina|  and, classical piano.  Until the Covid-19 crisis, I played instruments in four to five Irish music sessions a week and I am the current president of an Irish musical and cultural organization branch in my city.  As you can see, I have much to keep me busy and contented.  I find myself to be among the very luckiest of persons and we have sufficient resources to help our adult children during the economic crisis resulting from the pandemic.",1.7,2.666667,4.0,4.0,5.0,5.666667,5.0,6.0
3195,1135,2020-04-18 17:48:25,EN,53,Female,"College degree, bachelor, master",College degree,Not employed,United States,no,Virginia,Married/cohabiting,1.0,No,Life carries on with minor changes,2.0,0.0,Program A,,No,2.0,2.0,1.0,5.0,3.0,1.0,4.0,3.0,4.0,1.0,2.0,2.0,4.0,8.0,9.0,2.0,7.0,5.0,9.0,1.0,7.0,2.0,2.0,2.0,1.0,2.0,4.0,6.0,5.0,4.0,2.0,5.0,2.0,2.0,1.0,6.0,6.0,6.0,1.0,6.0,6.0,6.0,2.0,5.0,5.0,6.0,3.0,6.0,6.0,1.0,99.0,3.0,1.0,6.0,6.0,2.0,99.0,6.0,1.0,1.0,1.0,5.0,2.0,2.0,2.0,1.0,2.0,1.0,1.0,1.0,5.0,5.0,,6.0,6.0,6.0,6.0,6.0,6.0,6.0,6.0,6.0,6.0,2.0,6.0,6.0,6.0,6.0,5.0,1.0,1.0,6.0,2.0,2.0,2.0,4.0,5.0,6.0,3.0,,1.0,1.0,1.0,5.0,1.0,2.0,My husband lost his job in the Hospitality Industry due to the overwhelming overreaction to this virus that behaves like every other virus we've ever experienced.  THAT has severely impacted my life because now we have no income.,2.0,2.666667,1.333333,6.0,6.0,5.0,5.333333,6.0
3196,109,2020-04-19 17:30:43,ZH-T,30,Male,"College degree, bachelor, master",PhD/Doctorate,Full time employed,United States,yes,<U+52A0><U+5DDE>,Single,0.0,No,Isolated,0.0,0.0,,Program C,No,,,,,,,,,,,,,,,,,,,,,,,,,,,,,,,,,,,,,,,,,,,,,,,,,,,,,,,,,,,,,,,,,,,,,,,,,,,,,,,,,,,,,,,,,,,,,,,,,,,,,,,,,,,,,,,,,,,
3199,1321,2020-04-18 17:42:12,EN,29,Female,"College degree, bachelor, master",College degree,Self-employed,United States,no,California,Single,0.0,Yes,Isolated,1.0,0.0,,Program C,No,4.0,3.0,4.0,3.0,2.0,4.0,3.0,2.0,4.0,4.0,5.0,4.0,5.0,4.0,7.0,1.0,1.0,4.0,2.0,7.0,2.0,5.0,5.0,5.0,6.0,6.0,2.0,4.0,4.0,5.0,2.0,2.0,2.0,5.0,5.0,4.0,5.0,2.0,5.0,5.0,6.0,5.0,4.0,5.0,5.0,4.0,6.0,4.0,6.0,5.0,99.0,6.0,5.0,5.0,99.0,6.0,99.0,5.0,5.0,5.0,5.0,6.0,6.0,4.0,5.0,5.0,4.0,5.0,6.0,3.0,6.0,99.0,Not being able to find a better paying job during this time,5.0,6.0,6.0,5.0,6.0,5.0,6.0,6.0,4.0,5.0,4.0,5.0,6.0,5.0,5.0,6.0,5.0,5.0,6.0,5.0,5.0,5.0,4.0,6.0,1.0,6.0,,4.0,5.0,5.0,4.0,5.0,2.0,Family I am currently living with will not let me seek work that involves me going outside of my home.,3.7,4.666667,4.333333,3.0,5.333333,4.333333,3.0,5.4
3200,2123,2020-04-18 17:54:10,EN,29,Female,"College degree, bachelor, master",College degree,Part time employed,United States,no,California,Married/cohabiting,0.0,Yes,Isolated,1.0,0.0,,Program C,No,3.0,5.0,5.0,4.0,3.0,3.0,3.0,3.0,3.0,2.0,3.0,2.0,5.0,3.0,8.0,0.0,0.0,2.0,2.0,4.0,0.0,6.0,6.0,6.0,6.0,6.0,0.0,5.0,5.0,5.0,2.0,1.0,2.0,4.0,5.0,4.0,2.0,1.0,6.0,5.0,6.0,5.0,2.0,6.0,5.0,5.0,4.0,5.0,5.0,2.0,99.0,6.0,3.0,5.0,2.0,2.0,99.0,6.0,5.0,6.0,6.0,5.0,1.0,3.0,3.0,5.0,5.0,5.0,5.0,2.0,6.0,5.0,,6.0,5.0,5.0,5.0,5.0,4.0,5.0,6.0,5.0,5.0,4.0,6.0,5.0,4.0,4.0,5.0,4.0,3.0,6.0,5.0,3.0,5.0,4.0,5.0,5.0,6.0,,3.0,5.0,6.0,2.0,5.0,2.0,,3.2,3.333333,4.0,1.333333,5.333333,5.333333,4.333333,5.1
3203,759,2020-04-18 17:21:36,EN,28,Female,"College degree, bachelor, master",College degree,Not employed,United States,no,California,Single,0.0,Yes,Isolated,1.0,0.0,Program A,,No,3.0,4.0,4.0,3.0,2.0,4.0,2.0,2.0,3.0,4.0,4.0,2.0,5.0,4.0,7.0,0.0,0.0,2.0,0.0,8.0,0.0,5.0,6.0,5.0,5.0,5.0,1.0,5.0,5.0,5.0,1.0,2.0,5.0,4.0,5.0,3.0,4.0,2.0,3.0,4.0,6.0,4.0,5.0,5.0,4.0,4.0,5.0,2.0,5.0,5.0,99.0,6.0,6.0,3.0,1.0,6.0,99.0,4.0,5.0,5.0,6.0,5.0,4.0,3.0,4.0,5.0,2.0,4.0,6.0,5.0,5.0,5.0,,3.0,5.0,5.0,4.0,5.0,3.0,5.0,5.0,2.0,4.0,3.0,3.0,5.0,4.0,5.0,3.0,5.0,4.0,6.0,2.0,5.0,3.0,2.0,5.0,1.0,3.0,,2.0,6.0,6.0,3.0,3.0,3.0,,3.7,3.666667,4.333333,3.333333,4.666667,3.666667,2.666667,4.1
3206,1049,2020-04-18 17:17:59,EN,50,Female,"College degree, bachelor, master",PhD/Doctorate,Full time employed,United States,no,New York,Married/cohabiting,2.0,Yes,Isolated,1.0,2.0,Program B,,Yes,3.0,4.0,5.0,3.0,3.0,3.0,4.0,3.0,5.0,3.0,1.0,1.0,1.0,7.0,9.0,5.0,6.0,8.0,8.0,10.0,2.0,5.0,6.0,5.0,6.0,6.0,0.0,6.0,6.0,6.0,2.0,5.0,4.0,3.0,1.0,6.0,6.0,6.0,1.0,5.0,5.0,5.0,1.0,5.0,6.0,5.0,1.0,6.0,6.0,2.0,4.0,4.0,4.0,1.0,1.0,1.0,99.0,6.0,3.0,5.0,6.0,6.0,2.0,2.0,1.0,1.0,2.0,1.0,1.0,1.0,3.0,1.0,,6.0,6.0,6.0,6.0,6.0,6.0,6.0,6.0,6.0,6.0,4.0,6.0,6.0,1.0,6.0,6.0,1.0,1.0,5.0,5.0,4.0,5.0,5.0,6.0,1.0,5.0,,5.0,6.0,6.0,6.0,6.0,6.0,"In the United States, our federal government (not surprisingly) is acting irrationally and ineffectively, but (some) of ourvstate and local governments have stepped in to give helpful and useful guidance.   Some of these questions were hard to answer, because I would give one answer if you were asking about our national leadership, and a much more positive answer if you were asking about our city or state leadership.  The most helpful things for me have been: 1) getting good scientific information, 2) working through my job in crisis response and emergency relief, to know Im helping as much as I can, 3) being in a community of people who are all behaving well and doing their best not to spread the disease, and 4) staying in touch with friends, family, and colleagues through technology.  In New York City we have been hit extremely hard, and it has been very sad and stressful.   I am a social and extroverted person, but I have zero trouble staying indoors knowing it means I could stay safe and not spread the virus to others.  Staying in touch with friends on social media all across the world has been great, but talking to people specifically in nyc who are going through the same stress can help also.  And my kids make sure we have lighter moments, baking, movies, card games, so its not all doomsday.  Be safe and stay healthy.",3.4,1.0,1.666667,6.0,5.0,5.666667,5.666667,6.0
3208,876,2020-04-19 17:13:05,EN,50,Female,"College degree, bachelor, master",Some College or equivalent,Self-employed,United States,no,Maine,Married/cohabiting,1.0,Yes,Isolated,0.0,0.0,Program A,,No,3.0,3.0,2.0,3.0,3.0,3.0,3.0,3.0,3.0,3.0,5.0,3.0,5.0,7.0,9.0,2.0,7.0,7.0,3.0,6.0,2.0,2.0,3.0,2.0,5.0,5.0,2.0,5.0,2.0,2.0,5.0,2.0,4.0,4.0,2.0,4.0,5.0,5.0,2.0,6.0,6.0,6.0,5.0,5.0,3.0,5.0,1.0,6.0,1.0,2.0,5.0,6.0,1.0,5.0,1.0,1.0,99.0,6.0,1.0,3.0,4.0,5.0,2.0,5.0,2.0,5.0,6.0,6.0,3.0,2.0,6.0,6.0,Worry that my industry will not recover,5.0,2.0,5.0,5.0,5.0,5.0,5.0,5.0,5.0,5.0,1.0,6.0,5.0,5.0,5.0,4.0,4.0,4.0,4.0,3.0,2.0,1.0,5.0,4.0,4.0,2.0,,1.0,4.0,4.0,2.0,2.0,2.0,"I spent two and half years producing a film that will never recoup its profits because theaters closed due the virus. I don't know when film production will resume or if the film business will recover. At the moment, I am planning as if it will, but the longer the lockdowns go on, the less chance my business will resume.",2.9,4.333333,3.0,5.0,6.0,3.333333,5.666667,4.7
3209,347,2020-04-18 17:02:31,EN,18,Female,"Some College, short continuing education or equivalent",College degree,Student,United States,yes,Pennsylvania,Single,0.0,No,Isolated,2.0,1.0,Program B,,No,4.0,3.0,5.0,3.0,4.0,4.0,4.0,3.0,4.0,3.0,3.0,3.0,3.0,4.0,4.0,9.0,9.0,9.0,9.0,5.0,9.0,5.0,6.0,4.0,4.0,6.0,5.0,6.0,6.0,6.0,4.0,6.0,3.0,6.0,6.0,1.0,4.0,1.0,6.0,6.0,6.0,6.0,4.0,5.0,6.0,6.0,1.0,5.0,99.0,4.0,99.0,4.0,6.0,3.0,99.0,99.0,4.0,4.0,6.0,99.0,5.0,5.0,5.0,5.0,4.0,4.0,4.0,6.0,6.0,6.0,6.0,99.0,,6.0,6.0,6.0,4.0,6.0,6.0,6.0,6.0,6.0,6.0,4.0,6.0,6.0,4.0,6.0,6.0,1.0,2.0,6.0,5.0,4.0,5.0,6.0,6.0,3.0,5.0,,6.0,6.0,6.0,6.0,6.0,1.0,,3.3,3.0,6.0,2.0,6.0,4.666667,5.666667,5.8
3213,1891,2020-04-18 17:19:40,EN,49,Female,"College degree, bachelor, master",College degree,Student,United States,no,New York,Single,0.0,Yes,Isolated,0.0,0.0,,Program C,No,5.0,5.0,5.0,3.0,2.0,5.0,3.0,2.0,5.0,5.0,5.0,5.0,5.0,2.0,8.0,,4.0,6.0,8.0,8.0,,6.0,6.0,5.0,6.0,6.0,0.0,6.0,6.0,6.0,3.0,4.0,6.0,6.0,6.0,1.0,6.0,6.0,2.0,5.0,6.0,5.0,1.0,5.0,6.0,4.0,1.0,5.0,1.0,5.0,99.0,5.0,3.0,5.0,1.0,99.0,99.0,6.0,4.0,6.0,6.0,6.0,4.0,5.0,4.0,6.0,5.0,5.0,1.0,1.0,6.0,5.0,"In the United States, there is a difference between national and state government.  My state is responding well, my national govt, not at all",6.0,6.0,6.0,5.0,5.0,6.0,6.0,6.0,6.0,6.0,1.0,1.0,6.0,1.0,6.0,1.0,1.0,1.0,6.0,6.0,6.0,6.0,6.0,4.0,2.0,1.0,"Knowing that the people of my State/area are working together, even though nationally we aren't",1.0,6.0,5.0,1.0,1.0,4.0,"I'm in the epicenter (NYC area) and a member of two high risk groups, and yet family members who are supporters of the President think he's doing a great job, despite the fact that he has been such a hindrance to common sense measures. People on the internet from other states seem to be rooting for my State to have problems. I feel that those family members don't really love me, although it's not the first time I've had those feelings.  And i feel my country is not united.  Also, as a high risk person who used to do health care, i have survivors guilt, so to speak, that I'm not risking my life and they are.",4.4,5.0,6.0,5.666667,5.333333,5.666667,5.0,5.8
3290,697,2020-04-18 14:21:02,EN,22,Other/would rather not say,"Some College, short continuing education or equivalent",Up to 12 years of school,Part time employed,United States,no,Iowa,Single,0.0,Yes,Isolated,2.0,0.0,,Program D,No,5.0,4.0,5.0,2.0,2.0,4.0,3.0,2.0,5.0,3.0,3.0,5.0,5.0,3.0,5.0,,,,,,,6.0,6.0,6.0,5.0,4.0,0.0,4.0,5.0,5.0,4.0,1.0,5.0,5.0,5.0,3.0,4.0,2.0,5.0,5.0,5.0,6.0,4.0,6.0,5.0,5.0,3.0,3.0,5.0,99.0,99.0,5.0,6.0,4.0,2.0,5.0,99.0,3.0,3.0,6.0,5.0,3.0,99.0,5.0,3.0,6.0,5.0,99.0,4.0,4.0,5.0,99.0,My family is doing all we can but other people still wont wear masks and social distance....we can only do so much as individuals,3.0,2.0,3.0,2.0,3.0,4.0,3.0,5.0,2.0,4.0,1.0,4.0,2.0,1.0,2.0,5.0,5.0,5.0,4.0,2.0,4.0,4.0,2.0,4.0,5.0,1.0,,2.0,6.0,5.0,4.0,6.0,2.0,"My family is immunocompromised. We take allergy shots (immunotherapy) once a week. Almost all nonessential medical services were discontinued. Luckily the office reopened (they come to our car and give us a shot), but we were cut off for a month and as a result the shots are much harder to deal with. It takes a day to recover.",4.1,4.333333,4.666667,2.666667,5.333333,4.666667,4.0,3.1
3676,799,2020-04-18 03:17:06,EN,29,Male,"College degree, bachelor, master",Some College or equivalent,Full time employed,United States,no,Ohio,Married/cohabiting,0.0,Yes,Life carries on with minor changes,3.0,0.0,Program A,,No,4.0,4.0,5.0,3.0,3.0,4.0,3.0,2.0,5.0,4.0,4.0,4.0,5.0,2.0,2.0,2.0,2.0,3.0,6.0,7.0,1.0,6.0,6.0,6.0,6.0,6.0,0.0,6.0,5.0,5.0,2.0,2.0,1.0,5.0,6.0,5.0,2.0,1.0,5.0,5.0,5.0,2.0,5.0,5.0,5.0,5.0,4.0,4.0,99.0,99.0,99.0,6.0,99.0,2.0,99.0,6.0,99.0,6.0,99.0,3.0,5.0,99.0,99.0,99.0,3.0,2.0,99.0,99.0,2.0,2.0,99.0,99.0,,5.0,2.0,1.0,2.0,6.0,2.0,2.0,2.0,3.0,5.0,2.0,2.0,2.0,2.0,2.0,2.0,2.0,2.0,2.0,3.0,2.0,2.0,3.0,2.0,2.0,2.0,,6.0,6.0,6.0,2.0,6.0,2.0,,3.9,4.333333,4.333333,1.666667,4.0,4.0,4.0,3.0
3887,614,2020-04-19 00:18:48,EN,19,Male,Up to 12 years of school,College degree,Part time employed,United States,no,Mississippi,Single,0.0,Yes,Life carries on with minor changes,3.0,0.0,Program B,,No,4.0,4.0,5.0,3.0,2.0,4.0,3.0,2.0,4.0,4.0,5.0,5.0,5.0,1.0,6.0,0.0,0.0,,,9.0,,2.0,6.0,6.0,6.0,6.0,0.0,5.0,3.0,2.0,4.0,1.0,2.0,5.0,5.0,5.0,5.0,3.0,5.0,5.0,5.0,3.0,5.0,5.0,5.0,4.0,3.0,5.0,6.0,5.0,99.0,6.0,6.0,6.0,1.0,6.0,99.0,2.0,6.0,6.0,6.0,4.0,99.0,6.0,5.0,6.0,6.0,3.0,2.0,4.0,5.0,99.0,,,,,,,,,,,,,,,,,,,,,,,,,,,,,,,,,,,,3.9,5.0,4.0,3.333333,4.333333,4.0,4.333333,
3998,1044,2020-04-17 23:02:29,EN,50,Female,"College degree, bachelor, master",Some College or equivalent,Full time employed,United States,no,UT,Married/cohabiting,0.0,Yes,Life carries on with minor changes,1.0,,,Program D,No,2.0,,2.0,4.0,4.0,2.0,5.0,,,2.0,2.0,2.0,3.0,7.0,9.0,1.0,2.0,6.0,8.0,5.0,1.0,3.0,3.0,3.0,3.0,3.0,3.0,5.0,4.0,5.0,4.0,4.0,2.0,4.0,2.0,4.0,5.0,5.0,2.0,4.0,5.0,4.0,3.0,5.0,4.0,5.0,2.0,5.0,2.0,2.0,99.0,2.0,4.0,5.0,99.0,5.0,99.0,2.0,4.0,3.0,5.0,1.0,2.0,2.0,2.0,2.0,5.0,3.0,2.0,2.0,5.0,99.0,,5.0,6.0,5.0,6.0,5.0,6.0,5.0,6.0,5.0,5.0,1.0,4.0,4.0,4.0,5.0,3.0,3.0,3.0,5.0,4.0,4.0,1.0,5.0,5.0,4.0,1.0,,1.0,3.0,1.0,4.0,4.0,4.0,,1.857143,2.333333,3.0,5.0,4.333333,4.333333,5.0,5.4
4052,444,2020-04-17 20:14:58,EN,55,Female,"College degree, bachelor, master",Some College or equivalent,Retired,United States,no,ohio,Divorced/widowed,0.0,Yes,Life carries on with minor changes,,,Program A,,No,5.0,4.0,4.0,2.0,1.0,4.0,2.0,4.0,3.0,5.0,3.0,3.0,3.0,2.0,8.0,0.0,3.0,4.0,0.0,10.0,0.0,5.0,5.0,5.0,4.0,4.0,0.0,5.0,5.0,6.0,2.0,3.0,4.0,5.0,2.0,5.0,2.0,1.0,6.0,5.0,6.0,6.0,4.0,4.0,4.0,3.0,5.0,4.0,99.0,4.0,99.0,3.0,3.0,4.0,99.0,5.0,99.0,5.0,4.0,5.0,5.0,5.0,4.0,4.0,3.0,4.0,6.0,4.0,2.0,3.0,4.0,2.0,,6.0,5.0,4.0,4.0,5.0,4.0,5.0,5.0,4.0,6.0,1.0,2.0,3.0,2.0,3.0,5.0,6.0,6.0,4.0,3.0,3.0,2.0,2.0,5.0,1.0,1.0,,1.0,3.0,6.0,4.0,4.0,2.0,,4.0,3.0,3.0,1.333333,5.666667,3.666667,3.0,4.8
4072,4407,2020-04-17 20:28:42,EN,60,Female,"Some College, short continuing education or equivalent",Some College or equivalent,Not employed,United States,no,Illinois,Divorced/widowed,0.0,Yes,Life carries on with minor changes,1.0,0.0,,Program C,No,2.0,1.0,1.0,1.0,5.0,1.0,5.0,5.0,2.0,1.0,1.0,1.0,3.0,7.0,10.0,5.0,7.0,5.0,8.0,8.0,2.0,6.0,6.0,6.0,6.0,6.0,0.0,6.0,6.0,5.0,2.0,5.0,1.0,6.0,2.0,6.0,5.0,5.0,2.0,1.0,6.0,6.0,2.0,6.0,5.0,5.0,2.0,5.0,4.0,1.0,99.0,99.0,1.0,1.0,3.0,1.0,99.0,6.0,1.0,6.0,2.0,2.0,99.0,2.0,1.0,2.0,2.0,2.0,2.0,1.0,1.0,99.0,,6.0,6.0,6.0,6.0,6.0,6.0,6.0,6.0,6.0,6.0,4.0,5.0,5.0,5.0,2.0,5.0,1.0,1.0,5.0,5.0,,5.0,6.0,4.0,5.0,3.0,,2.0,2.0,2.0,2.0,2.0,2.0,,1.6,1.666667,3.0,5.0,4.333333,5.333333,5.0,6.0
4080,1828,2020-04-17 19:14:43,EN,77,Female,"College degree, bachelor, master",Some College or equivalent,Self-employed,United States,no,California,Divorced/widowed,0.0,Yes,Isolated,0.0,0.0,,,,3.0,2.0,3.0,5.0,5.0,3.0,5.0,5.0,2.0,2.0,4.0,3.0,3.0,8.0,10.0,1.0,6.0,6.0,6.0,7.0,1.0,6.0,6.0,6.0,6.0,6.0,0.0,6.0,6.0,6.0,5.0,5.0,4.0,5.0,2.0,5.0,4.0,4.0,4.0,5.0,6.0,5.0,1.0,6.0,6.0,5.0,5.0,5.0,4.0,2.0,99.0,2.0,2.0,5.0,1.0,99.0,99.0,4.0,2.0,3.0,4.0,2.0,99.0,5.0,2.0,5.0,6.0,1.0,1.0,1.0,3.0,99.0,,6.0,6.0,6.0,5.0,6.0,5.0,6.0,6.0,6.0,6.0,5.0,5.0,6.0,6.0,6.0,3.0,1.0,1.0,6.0,6.0,4.0,5.0,6.0,5.0,6.0,5.0,,1.0,6.0,2.0,6.0,,4.0,Unavailability of testing for existing MGUS condition,1.9,3.333333,3.0,3.666667,5.333333,6.0,4.0,5.8
4122,1332,2020-04-17 16:54:53,JA,33,Female,"College degree, bachelor, master",Some College or equivalent,Full time employed,United States,yes,,Single,0.0,Yes,Isolated,1.0,0.0,,Program D,No,3.0,3.0,4.0,2.0,2.0,3.0,3.0,3.0,3.0,2.0,2.0,2.0,3.0,7.0,8.0,4.0,5.0,5.0,5.0,9.0,1.0,4.0,5.0,3.0,3.0,5.0,1.0,5.0,4.0,5.0,4.0,3.0,4.0,2.0,3.0,3.0,6.0,4.0,4.0,3.0,4.0,2.0,4.0,6.0,4.0,3.0,4.0,3.0,6.0,4.0,99.0,5.0,5.0,99.0,1.0,3.0,99.0,6.0,2.0,5.0,5.0,5.0,6.0,5.0,1.0,4.0,6.0,1.0,6.0,2.0,6.0,5.0,,3.0,4.0,2.0,4.0,4.0,4.0,5.0,4.0,4.0,2.0,4.0,5.0,6.0,5.0,6.0,3.0,2.0,1.0,6.0,1.0,4.0,4.0,6.0,5.0,1.0,3.0,,5.0,1.0,5.0,4.0,2.0,1.0,<U+81EA><U+7C9B><U+751F><U+6D3B> <U+5148><U+304C><U+898B><U+3048><U+306A><U+3044><U+73FE><U+5B9F> <U+3044><U+3064><U+7D42><U+606F><U+3059><U+308B><U+304B><U+304C><U+5168><U+304F><U+898B><U+3048><U+306A><U+3044><U+672A><U+77E5><U+306E><U+9818><U+57DF><U+306B><U+6050><U+6016><U+3092><U+899A><U+3048><U+308B> <U+5404><U+56FD><U+306E><U+5BFE><U+5FDC><U+306E><U+9055><U+3044><U+3001><U+3069><U+306E><U+60C5><U+5831><U+304C><U+6B63><U+3057><U+3044><U+306E><U+304B><U+3001><U+6BD4><U+8F03><U+3059><U+308B><U+3053><U+3068><U+306E><U+5927><U+5207><U+3055><U+3092><U+611F><U+3058><U+305F>  <U+4EBA><U+3068><U+89E6><U+308C><U+5408><U+3046><U+3053><U+3068><U+304C><U+3067><U+304D><U+306A><U+3044><U+3001><U+5F53><U+305F><U+308A><U+524D><U+306E><U+3053><U+3068><U+304C><U+5F53><U+305F><U+308A><U+524D><U+3058><U+3083><U+306A><U+304F><U+306A><U+3063><U+305F><U+751F><U+6D3B>  <U+81EA><U+5206><U+304C><U+3067><U+304D><U+308B><U+3053><U+3068><U+306F><U+3001><U+6700><U+4F4E><U+9650><U+306E><U+30EB><U+30FC><U+30EB><U+3002> <U+305F><U+3060><U+3001><U+4EBA><U+306E><U+9069><U+5FDC><U+91CF><U+306E><U+9AD8><U+3055><U+3068><U+65B0><U+3057><U+3044><U+74B0><U+5883><U+3067><U+81EA><U+5206><U+306F><U+4F55><U+3092><U+3059><U+3079><U+304D><U+304B><U+8003><U+3048><U+884C><U+52D5><U+3059><U+308B><U+3053><U+3068><U+306E><U+610F><U+8B58><U+306F><U+3001><U+30B3><U+30EC><U+3092><U+304D><U+3063><U+304B><U+3051><U+306B><U+82BD><U+751F><U+3048><U+305F><U+3068><U+611F><U+3058><U+308B> ,3.2,2.333333,3.0,4.333333,3.0,4.333333,3.0,3.6
4155,317,2020-04-18 15:59:27,EN,37,Male,"Some College, short continuing education or equivalent",College degree,Full time employed,United States,no,Illinois,Married/cohabiting,2.0,No,Life carries on with minor changes,1.0,2.0,Program B,,No,2.0,1.0,3.0,5.0,5.0,1.0,4.0,5.0,2.0,1.0,1.0,1.0,1.0,,,,,,,,,,,,,,,,,,,,,,,,,,,,,,,,,,,,,,,,,,,,,,,,,,,,,,,,,,,,,,,,,,,,,,,,,,,,,,,,,,,,,,,,,,,,,,,1.5,1.0,,,,,,
4411,1115,2020-04-17 13:45:07,NL,56,Male,PhD/Doctorate,College degree,Full time employed,United States,yes,ohio,Married/cohabiting,1.0,No,Isolated,2.0,1.0,,Program D,No,1.0,1.0,2.0,5.0,3.0,1.0,4.0,4.0,2.0,1.0,3.0,2.0,3.0,6.0,7.0,2.0,6.0,1.0,6.0,3.0,7.0,2.0,4.0,4.0,6.0,6.0,4.0,4.0,5.0,6.0,1.0,2.0,2.0,1.0,1.0,5.0,6.0,4.0,3.0,5.0,3.0,2.0,5.0,4.0,4.0,5.0,3.0,5.0,2.0,2.0,99.0,2.0,1.0,4.0,2.0,2.0,2.0,5.0,4.0,4.0,4.0,5.0,3.0,3.0,2.0,1.0,3.0,4.0,4.0,3.0,5.0,4.0,,5.0,4.0,5.0,6.0,5.0,5.0,5.0,6.0,5.0,5.0,2.0,4.0,5.0,4.0,4.0,4.0,1.0,1.0,4.0,5.0,5.0,4.0,4.0,5.0,2.0,3.0,,2.0,3.0,2.0,2.0,4.0,3.0,,1.6,2.666667,1.333333,4.666667,3.333333,3.333333,4.666667,5.1
4639,698,2020-04-17 11:48:16,EN,26,Male,"Some College, short continuing education or equivalent",College degree,Student,United States,no,Rxi,Single,0.0,Yes,Life carries on with minor changes,2.0,0.0,,Program C,No,3.0,5.0,5.0,3.0,3.0,4.0,2.0,3.0,4.0,4.0,3.0,2.0,3.0,7.0,8.0,5.0,5.0,5.0,9.0,5.0,2.0,5.0,5.0,5.0,5.0,4.0,0.0,4.0,4.0,5.0,4.0,3.0,4.0,5.0,5.0,1.0,3.0,2.0,5.0,2.0,5.0,2.0,4.0,5.0,5.0,4.0,1.0,4.0,4.0,5.0,99.0,4.0,5.0,4.0,5.0,6.0,99.0,5.0,5.0,5.0,4.0,4.0,5.0,5.0,6.0,4.0,2.0,4.0,3.0,3.0,6.0,2.0,,5.0,5.0,2.0,3.0,4.0,4.0,4.0,2.0,2.0,5.0,2.0,5.0,4.0,4.0,2.0,2.0,2.0,2.0,5.0,2.0,2.0,2.0,5.0,2.0,2.0,4.0,,5.0,5.0,5.0,4.0,4.0,2.0,,3.8,2.666667,5.333333,2.333333,3.0,4.333333,4.666667,3.6
4755,1316,2020-04-17 10:57:05,DA,26,Female,"College degree, bachelor, master",Some College or equivalent,Not employed,United States,no,Arlington,Married/cohabiting,0.0,Yes,Isolated,1.0,0.0,Program B,,No,3.0,4.0,4.0,3.0,2.0,2.0,4.0,1.0,3.0,3.0,3.0,4.0,4.0,7.0,8.0,8.0,9.0,6.0,9.0,7.0,9.0,3.0,5.0,6.0,5.0,6.0,5.0,6.0,6.0,5.0,3.0,4.0,1.0,6.0,5.0,5.0,5.0,6.0,2.0,3.0,1.0,6.0,1.0,4.0,6.0,4.0,3.0,6.0,1.0,99.0,99.0,5.0,2.0,6.0,1.0,2.0,99.0,6.0,2.0,4.0,4.0,6.0,99.0,6.0,3.0,6.0,1.0,4.0,3.0,2.0,6.0,6.0,,6.0,6.0,4.0,5.0,6.0,2.0,6.0,6.0,4.0,6.0,6.0,1.0,5.0,2.0,1.0,4.0,1.0,1.0,6.0,5.0,3.0,6.0,2.0,6.0,1.0,5.0,Fokusere på daglig motion,5.0,5.0,5.0,2.0,3.0,4.0,,3.3,3.666667,4.333333,5.333333,3.333333,5.333333,4.666667,5.1
4809,1832,2020-04-17 10:39:24,DA,31,Male,PhD/Doctorate,Up to 12 years of school,Full time employed,United States,no,Arlington,Married/cohabiting,0.0,Yes,Isolated,1.0,0.0,,Program D,No,3.0,1.0,1.0,5.0,3.0,3.0,2.0,4.0,4.0,1.0,1.0,2.0,4.0,7.0,10.0,9.0,10.0,9.0,10.0,8.0,10.0,1.0,4.0,2.0,6.0,6.0,6.0,1.0,1.0,6.0,4.0,5.0,1.0,1.0,1.0,6.0,2.0,5.0,3.0,2.0,3.0,2.0,2.0,6.0,5.0,6.0,4.0,6.0,1.0,4.0,99.0,1.0,5.0,5.0,1.0,6.0,99.0,4.0,4.0,4.0,3.0,4.0,1.0,2.0,1.0,2.0,2.0,2.0,1.0,1.0,3.0,5.0,,6.0,6.0,5.0,6.0,6.0,6.0,6.0,6.0,6.0,6.0,1.0,2.0,6.0,1.0,4.0,5.0,1.0,1.0,5.0,3.0,1.0,1.0,2.0,5.0,1.0,1.0,,5.0,4.0,6.0,4.0,5.0,4.0,,2.3,2.333333,1.0,3.666667,2.333333,5.333333,5.0,5.9
4904,1272,2020-04-17 09:44:58,EN,31,Male,"Some College, short continuing education or equivalent",Up to 12 years of school,Part time employed,United States,no,Tx,Single,1.0,Yes,Isolated,0.0,0.0,,Program D,No,2.0,3.0,2.0,4.0,3.0,3.0,4.0,3.0,1.0,2.0,4.0,2.0,3.0,3.0,8.0,2.0,2.0,2.0,2.0,1.0,3.0,5.0,6.0,5.0,6.0,6.0,3.0,5.0,3.0,4.0,4.0,2.0,2.0,3.0,2.0,4.0,4.0,4.0,3.0,4.0,5.0,4.0,3.0,4.0,4.0,5.0,2.0,5.0,3.0,2.0,4.0,3.0,2.0,5.0,2.0,2.0,2.0,5.0,2.0,3.0,3.0,2.0,2.0,3.0,3.0,5.0,5.0,3.0,2.0,2.0,5.0,3.0,My overall health. Goin to the gym,6.0,6.0,5.0,6.0,6.0,6.0,6.0,4.0,6.0,6.0,4.0,5.0,5.0,4.0,5.0,3.0,4.0,5.0,5.0,4.0,4.0,3.0,4.0,3.0,4.0,3.0,,3.0,4.0,3.0,3.0,2.0,3.0,Well i like to go to national parks or state parks and they are all closed. I like to be outside and do activities with people and now you cant/shouldnt.  Activities i would normally do with my son are also a no-go,2.3,3.0,2.666667,4.0,4.333333,4.0,5.0,5.7
4937,292,2020-04-18 09:14:49,EN,60,Female,"College degree, bachelor, master",PhD/Doctorate,Retired,United States,no,,Other or would rather not say,3.0,Yes,Isolated,1.0,0.0,Program A,,Yes,1.0,3.0,3.0,4.0,3.0,3.0,5.0,3.0,1.0,1.0,3.0,2.0,1.0,,,,,,,,,,,,,,,,,,,,,,,,,,,,,,,,,,,,,,,,,,,,,,,,,,,,,,,,,,,,,,,,,,,,,,,,,,,,,,,,,,,,,,,,,,,,,,,2.1,2.0,,,,,,
5118,637,2020-04-17 08:00:36,EN,63,Female,"College degree, bachelor, master",Up to 12 years of school,Full time employed,United States,no,Washington,Married/cohabiting,0.0,No,Life carries on with minor changes,,,,Program C,No,2.0,2.0,2.0,5.0,4.0,2.0,4.0,5.0,1.0,2.0,2.0,2.0,2.0,7.0,8.0,7.0,8.0,7.0,6.0,7.0,6.0,5.0,5.0,5.0,5.0,5.0,4.0,5.0,5.0,5.0,3.0,3.0,2.0,4.0,2.0,5.0,5.0,5.0,3.0,5.0,5.0,4.0,2.0,5.0,5.0,4.0,2.0,5.0,2.0,2.0,3.0,2.0,2.0,4.0,5.0,2.0,1.0,5.0,3.0,4.0,4.0,5.0,2.0,2.0,2.0,2.0,2.0,3.0,3.0,2.0,5.0,4.0,,5.0,5.0,5.0,5.0,5.0,5.0,5.0,5.0,5.0,5.0,4.0,5.0,5.0,5.0,5.0,4.0,3.0,2.0,3.0,5.0,4.0,4.0,5.0,5.0,5.0,4.0,,4.0,3.0,4.0,5.0,3.0,4.0,,1.7,2.0,2.666667,4.666667,4.666667,5.0,4.666667,5.0
5177,11284,2020-04-18 10:35:44,SME,49,,"Some College, short continuing education or equivalent",Up to 9 years of school,Full time employed,United States,yes,Illinois,Married/cohabiting,0.0,Yes,Isolated,1.0,0.0,,Program C,No,2.0,2.0,3.0,3.0,3.0,2.0,3.0,3.0,4.0,2.0,3.0,3.0,4.0,8.0,8.0,0.0,5.0,4.0,4.0,4.0,1.0,5.0,6.0,6.0,6.0,5.0,0.0,6.0,6.0,6.0,6.0,6.0,4.0,5.0,4.0,6.0,3.0,4.0,2.0,5.0,5.0,4.0,2.0,3.0,4.0,6.0,3.0,6.0,3.0,5.0,99.0,4.0,2.0,3.0,2.0,4.0,99.0,6.0,4.0,6.0,6.0,6.0,4.0,4.0,3.0,4.0,3.0,99.0,2.0,1.0,5.0,6.0,,6.0,6.0,6.0,6.0,6.0,6.0,6.0,6.0,6.0,6.0,1.0,6.0,6.0,6.0,5.0,5.0,5.0,5.0,5.0,5.0,4.0,5.0,6.0,6.0,3.0,5.0,,3.0,6.0,4.0,6.0,4.0,6.0,A ratos tengo sensación de ahogo y tengo que salir ese rato a tomar aire puro.,2.7,3.333333,3.333333,4.0,4.666667,4.0,5.333333,6.0
5230,3460,2020-04-17 08:02:50,EN,36,Female,"College degree, bachelor, master",Some College or equivalent,Not employed,United States,no,Michigan,Married/cohabiting,2.0,Yes,Life carries on with minor changes,,,Program A,,No,3.0,4.0,4.0,3.0,3.0,3.0,3.0,3.0,3.0,3.0,1.0,2.0,5.0,6.0,8.0,5.0,5.0,5.0,7.0,7.0,8.0,2.0,6.0,5.0,5.0,5.0,6.0,4.0,5.0,5.0,2.0,2.0,2.0,4.0,4.0,4.0,5.0,3.0,5.0,4.0,5.0,3.0,1.0,4.0,5.0,5.0,2.0,4.0,4.0,6.0,99.0,99.0,2.0,5.0,5.0,4.0,5.0,6.0,5.0,5.0,5.0,5.0,99.0,5.0,99.0,6.0,6.0,6.0,5.0,2.0,6.0,6.0,,6.0,6.0,5.0,6.0,6.0,4.0,6.0,6.0,5.0,6.0,4.0,5.0,5.0,5.0,5.0,3.0,1.0,1.0,5.0,5.0,3.0,5.0,4.0,5.0,6.0,4.0,,5.0,3.0,2.0,5.0,5.0,2.0,,3.2,2.666667,3.666667,3.333333,4.0,5.0,4.666667,5.6
5231,1480,2020-04-17 07:29:44,EN,76,Female,"Some College, short continuing education or equivalent",Up to 12 years of school,Retired,United States,no,Ill,Divorced/widowed,0.0,Yes,Isolated,1.0,0.0,,Program D,No,2.0,1.0,2.0,5.0,5.0,1.0,5.0,5.0,3.0,2.0,1.0,1.0,2.0,8.0,9.0,6.0,7.0,8.0,4.0,7.0,3.0,4.0,4.0,5.0,4.0,4.0,1.0,5.0,5.0,5.0,2.0,5.0,2.0,,,5.0,5.0,4.0,3.0,4.0,5.0,4.0,3.0,5.0,6.0,4.0,2.0,5.0,99.0,99.0,4.0,99.0,99.0,2.0,2.0,,99.0,4.0,2.0,5.0,4.0,4.0,2.0,2.0,2.0,2.0,3.0,99.0,2.0,2.0,4.0,3.0,,6.0,6.0,6.0,6.0,6.0,,6.0,6.0,5.0,6.0,2.0,4.0,5.0,3.0,6.0,5.0,1.0,2.0,4.0,5.0,4.0,5.0,5.0,5.0,4.0,4.0,,2.0,2.0,2.0,2.0,2.0,2.0,,1.5,1.333333,2.0,4.333333,4.333333,5.0,4.666667,5.888889
5242,378,2020-04-18 07:06:09,DA,27,Female,"College degree, bachelor, master",College degree,Full time employed,United States,no,,Married/cohabiting,0.0,Yes,Life carries on with minor changes,,,,Program D,No,2.0,3.0,2.0,4.0,3.0,2.0,4.0,3.0,5.0,2.0,2.0,1.0,4.0,4.0,10.0,8.0,9.0,7.0,9.0,7.0,6.0,6.0,6.0,4.0,3.0,6.0,10.0,6.0,5.0,5.0,3.0,4.0,4.0,4.0,1.0,4.0,4.0,5.0,2.0,5.0,4.0,4.0,6.0,6.0,5.0,5.0,3.0,6.0,,,,,,,,,,,,,,,,,,,,,,,,,,,,,,,,,,,,,,,,,,,,,,,,,,,,,,,,,,,,2.6,2.333333,2.666667,4.666667,4.333333,4.0,5.0,
5254,1220,2020-04-17 07:15:24,SME,40,Female,PhD/Doctorate,Up to 12 years of school,Student,United States,yes,,Other or would rather not say,0.0,Yes,Isolated,1.0,0.0,,Program D,No,5.0,3.0,5.0,3.0,3.0,5.0,3.0,2.0,3.0,4.0,3.0,3.0,3.0,8.0,8.0,1.0,0.0,2.0,0.0,7.0,1.0,4.0,4.0,6.0,6.0,6.0,0.0,5.0,5.0,5.0,6.0,6.0,1.0,6.0,5.0,4.0,6.0,4.0,4.0,6.0,6.0,6.0,4.0,5.0,4.0,4.0,3.0,6.0,5.0,6.0,4.0,5.0,4.0,5.0,99.0,4.0,99.0,6.0,6.0,6.0,6.0,6.0,5.0,6.0,5.0,6.0,6.0,6.0,6.0,5.0,6.0,6.0,,6.0,6.0,6.0,6.0,4.0,5.0,5.0,6.0,5.0,5.0,4.0,5.0,4.0,5.0,5.0,3.0,4.0,4.0,4.0,5.0,3.0,1.0,5.0,4.0,1.0,4.0,,1.0,5.0,4.0,5.0,3.0,5.0,El hecho de que parece que nadie puede detener a Trump y sus estupideces y que la colaboración global esta ligada a los interes geopoliticos y extractivistad de los paises mas poderosos y de los gobiernos que manejan sus paises como empresas,3.8,3.0,4.666667,4.333333,6.0,4.0,4.666667,5.4
5340,189,2020-04-18 06:23:32,DA,27,Female,"College degree, bachelor, master",Up to 12 years of school,Not employed,United States,no,,Married/cohabiting,2.0,No,Life carries on with minor changes,1.0,2.0,,,,,,,,,,,,,,,,,,,,,,,,,,,,,,,,,,,,,,,,,,,,,,,,,,,,,,,,,,,,,,,,,,,,,,,,,,,,,,,,,,,,,,,,,,,,,,,,,,,,,,,,,,,,,,,,,,,,,,
5603,1190,2020-04-17 05:21:10,EN,38,Male,"Some College, short continuing education or equivalent",Up to 12 years of school,Full time employed,United States,yes,Illinois,Married/cohabiting,4.0,Yes,Isolated,1.0,3.0,,Program C,No,2.0,3.0,4.0,3.0,3.0,3.0,3.0,2.0,4.0,1.0,1.0,4.0,3.0,5.0,7.0,2.0,8.0,8.0,9.0,4.0,1.0,5.0,6.0,4.0,5.0,5.0,1.0,5.0,5.0,5.0,4.0,2.0,2.0,2.0,3.0,5.0,5.0,4.0,4.0,4.0,2.0,3.0,6.0,4.0,5.0,5.0,2.0,5.0,6.0,5.0,5.0,6.0,4.0,5.0,5.0,3.0,6.0,6.0,5.0,6.0,6.0,6.0,5.0,5.0,6.0,2.0,4.0,5.0,4.0,2.0,6.0,4.0,,5.0,5.0,5.0,6.0,6.0,5.0,5.0,6.0,4.0,6.0,3.0,2.0,5.0,2.0,2.0,5.0,2.0,2.0,4.0,4.0,4.0,5.0,5.0,5.0,4.0,2.0,,2.0,5.0,5.0,4.0,4.0,2.0,,3.0,2.666667,2.333333,4.0,3.0,3.333333,5.0,5.3
6010,688,2020-04-17 03:42:41,DA,29,Female,"Some College, short continuing education or equivalent",PhD/Doctorate,Self-employed,United States,yes,,Single,0.0,Yes,Isolated,1.0,0.0,,Program D,No,2.0,1.0,1.0,5.0,4.0,2.0,5.0,4.0,1.0,1.0,4.0,2.0,4.0,7.0,10.0,5.0,7.0,5.0,5.0,8.0,5.0,2.0,5.0,4.0,5.0,5.0,7.0,5.0,6.0,5.0,5.0,6.0,3.0,5.0,1.0,6.0,5.0,5.0,2.0,6.0,3.0,6.0,5.0,5.0,6.0,5.0,2.0,6.0,2.0,2.0,99.0,2.0,2.0,4.0,1.0,1.0,99.0,6.0,5.0,5.0,1.0,5.0,2.0,6.0,2.0,5.0,99.0,4.0,3.0,1.0,6.0,99.0,,5.0,5.0,4.0,5.0,5.0,5.0,5.0,6.0,6.0,5.0,4.0,6.0,5.0,2.0,6.0,5.0,1.0,1.0,1.0,5.0,3.0,6.0,5.0,3.0,1.0,4.0,,3.0,4.0,6.0,5.0,4.0,5.0,,1.4,3.333333,2.333333,5.0,5.0,4.333333,5.333333,5.1
7398,1195,2020-04-16 20:44:06,EN,55,Other/would rather not say,"College degree, bachelor, master",Up to 12 years of school,Full time employed,United States,no,CA,Other or would rather not say,,No,Isolated,1.0,0.0,,,,3.0,3.0,3.0,4.0,3.0,3.0,4.0,3.0,3.0,3.0,2.0,3.0,4.0,7.0,9.0,7.0,8.0,7.0,8.0,6.0,6.0,2.0,3.0,3.0,3.0,4.0,5.0,5.0,5.0,5.0,4.0,3.0,2.0,3.0,2.0,5.0,5.0,4.0,3.0,5.0,5.0,3.0,1.0,5.0,6.0,5.0,1.0,6.0,2.0,4.0,99.0,2.0,4.0,6.0,4.0,2.0,99.0,6.0,4.0,3.0,3.0,4.0,5.0,6.0,99.0,4.0,5.0,4.0,3.0,3.0,5.0,5.0,,5.0,5.0,5.0,5.0,5.0,5.0,5.0,5.0,5.0,5.0,4.0,6.0,5.0,5.0,6.0,3.0,3.0,2.0,3.0,5.0,4.0,4.0,4.0,5.0,6.0,4.0,,2.0,2.0,6.0,3.0,2.0,2.0,,2.8,3.0,2.333333,4.333333,4.333333,5.666667,5.666667,5.0
7420,1638,2020-04-16 19:53:08,EN,39,Female,PhD/Doctorate,College degree,Full time employed,United States,no,Tennessee,Married/cohabiting,1.0,Yes,Isolated,1.0,1.0,Program A,,No,2.0,3.0,3.0,5.0,4.0,2.0,4.0,4.0,3.0,1.0,2.0,2.0,2.0,7.0,8.0,3.0,7.0,7.0,8.0,10.0,1.0,5.0,5.0,5.0,6.0,5.0,1.0,6.0,6.0,6.0,4.0,3.0,3.0,4.0,4.0,6.0,6.0,4.0,5.0,4.0,6.0,4.0,5.0,5.0,5.0,5.0,1.0,6.0,99.0,6.0,5.0,99.0,4.0,5.0,99.0,4.0,6.0,6.0,4.0,6.0,5.0,5.0,6.0,4.0,2.0,4.0,6.0,4.0,5.0,2.0,6.0,2.0,,6.0,6.0,5.0,5.0,6.0,6.0,6.0,6.0,5.0,6.0,4.0,5.0,6.0,6.0,5.0,4.0,1.0,1.0,4.0,3.0,2.0,6.0,6.0,3.0,1.0,5.0,,3.0,4.0,4.0,5.0,6.0,4.0,,2.1,2.0,3.0,4.0,4.666667,4.0,5.666667,5.7
7431,707,2020-04-17 18:56:11,EN,68,Female,"College degree, bachelor, master",College degree,Retired,United States,no,Georgia,Married/cohabiting,0.0,Yes,Isolated,1.0,0.0,,Program D,No,3.0,3.0,3.0,4.0,3.0,2.0,4.0,3.0,2.0,3.0,2.0,2.0,3.0,7.0,9.0,,3.0,7.0,1.0,8.0,,5.0,5.0,4.0,6.0,6.0,0.0,6.0,6.0,6.0,1.0,3.0,5.0,3.0,2.0,3.0,4.0,4.0,4.0,4.0,4.0,5.0,3.0,5.0,4.0,3.0,4.0,4.0,2.0,3.0,99.0,99.0,4.0,4.0,99.0,3.0,99.0,4.0,3.0,5.0,6.0,5.0,99.0,4.0,3.0,4.0,4.0,4.0,4.0,3.0,4.0,2.0,,4.0,5.0,3.0,,5.0,4.0,5.0,5.0,4.0,4.0,1.0,2.0,5.0,2.0,5.0,4.0,2.0,2.0,4.0,4.0,3.0,1.0,3.0,5.0,1.0,4.0,,2.0,4.0,4.0,4.0,4.0,3.0,"Facing needed surgery (partial nephrectomy) next week--first surgery of my life. Instead of being grateful for 68 years of good health, I'm stressed over the ""why me, why now"" aspect of it.",2.6,2.333333,3.0,3.666667,4.333333,4.333333,3.333333,4.333333
7441,999,2020-04-16 18:09:27,EN,38,Female,"Some College, short continuing education or equivalent",Up to 12 years of school,Full time employed,United States,no,washington,Married/cohabiting,3.0,No,Isolated,2.0,3.0,,Program D,Not sure,2.0,3.0,5.0,4.0,2.0,2.0,4.0,5.0,5.0,2.0,3.0,3.0,5.0,7.0,8.0,5.0,5.0,5.0,5.0,5.0,7.0,6.0,6.0,6.0,6.0,6.0,8.0,5.0,6.0,6.0,4.0,4.0,4.0,5.0,6.0,3.0,6.0,6.0,2.0,4.0,3.0,2.0,3.0,5.0,5.0,6.0,1.0,6.0,2.0,4.0,4.0,4.0,6.0,6.0,6.0,1.0,2.0,6.0,6.0,6.0,6.0,6.0,2.0,4.0,99.0,3.0,3.0,6.0,6.0,2.0,6.0,99.0,,5.0,6.0,5.0,6.0,6.0,5.0,6.0,6.0,5.0,6.0,3.0,3.0,6.0,3.0,5.0,3.0,1.0,1.0,3.0,2.0,5.0,4.0,6.0,4.0,3.0,4.0,,5.0,2.0,3.0,6.0,6.0,2.0,"Having to be scared of the unknown.  Isolation is very hard, been almost 2 months since I have went anywhere besided my house and qaurentined office space at work.  Using alot of cleaners and hand sanitzers cant be good for my health.  I wish the media wouldnt lie during such a crazy scary time.",2.8,3.666667,5.0,5.666667,3.0,4.666667,6.0,5.6
7452,852,2020-04-16 17:23:10,EN,45,Male,PhD/Doctorate,Some College or equivalent,Full time employed,United States,no,New Jersey,Married/cohabiting,2.0,Yes,Life carries on with minor changes,1.0,2.0,,Program D,No,2.0,4.0,3.0,4.0,3.0,3.0,4.0,4.0,3.0,2.0,3.0,3.0,3.0,7.0,9.0,6.0,8.0,8.0,6.0,7.0,6.0,4.0,5.0,4.0,4.0,5.0,3.0,4.0,6.0,5.0,3.0,2.0,3.0,3.0,3.0,5.0,5.0,4.0,4.0,4.0,4.0,4.0,3.0,4.0,3.0,4.0,3.0,5.0,5.0,5.0,4.0,4.0,5.0,6.0,2.0,5.0,5.0,6.0,5.0,5.0,5.0,6.0,3.0,5.0,3.0,3.0,6.0,2.0,6.0,5.0,5.0,6.0,,5.0,5.0,5.0,5.0,5.0,4.0,6.0,4.0,4.0,5.0,3.0,4.0,5.0,5.0,5.0,6.0,1.0,1.0,3.0,4.0,4.0,4.0,6.0,4.0,2.0,3.0,,4.0,5.0,5.0,3.0,6.0,3.0,,2.6,3.0,2.666667,4.0,4.0,3.666667,4.333333,4.8
7532,84708,2020-04-17 14:05:04,EN,34,Female,"College degree, bachelor, master",College degree,Full time employed,United States,no,Washington,Single,0.0,Yes,Isolated,0.0,0.0,,Program D,No,2.0,3.0,3.0,5.0,3.0,2.0,5.0,4.0,2.0,1.0,3.0,3.0,3.0,6.0,9.0,5.0,6.0,7.0,7.0,7.0,3.0,5.0,5.0,5.0,6.0,6.0,1.0,5.0,6.0,6.0,6.0,5.0,3.0,4.0,4.0,5.0,5.0,4.0,2.0,4.0,4.0,5.0,2.0,5.0,6.0,3.0,2.0,5.0,2.0,2.0,99.0,2.0,2.0,6.0,3.0,99.0,99.0,5.0,3.0,5.0,4.0,4.0,6.0,6.0,1.0,6.0,5.0,2.0,5.0,2.0,6.0,2.0,,6.0,6.0,5.0,5.0,6.0,5.0,6.0,6.0,6.0,6.0,4.0,5.0,6.0,5.0,5.0,4.0,1.0,2.0,5.0,5.0,5.0,4.0,5.0,6.0,4.0,5.0,,5.0,5.0,5.0,6.0,4.0,5.0,,2.0,3.0,3.333333,4.666667,4.333333,5.333333,4.333333,5.7
7652,515,2020-04-17 13:14:51,EN,27,Female,"College degree, bachelor, master",Up to 12 years of school,Part time employed,United States,no,Texas,Single,0.0,Yes,Life carries on with minor changes,5.0,0.0,,Program D,No,3.0,3.0,4.0,2.0,2.0,4.0,3.0,3.0,3.0,3.0,3.0,3.0,3.0,4.0,5.0,2.0,2.0,2.0,0.0,2.0,0.0,3.0,3.0,3.0,4.0,4.0,0.0,4.0,3.0,2.0,3.0,3.0,3.0,3.0,3.0,5.0,2.0,2.0,5.0,4.0,6.0,3.0,2.0,4.0,4.0,5.0,3.0,5.0,1.0,1.0,99.0,2.0,5.0,5.0,4.0,5.0,3.0,4.0,4.0,2.0,5.0,4.0,2.0,1.0,3.0,3.0,4.0,1.0,4.0,4.0,1.0,1.0,,4.0,4.0,4.0,4.0,5.0,4.0,6.0,4.0,5.0,6.0,4.0,4.0,4.0,4.0,4.0,3.0,5.0,4.0,4.0,4.0,4.0,4.0,3.0,4.0,4.0,4.0,,5.0,5.0,5.0,5.0,3.0,5.0,,3.4,3.0,2.666667,2.0,4.333333,4.333333,4.666667,4.6
8053,4113,2020-04-16 11:40:38,EN,85,Male,"College degree, bachelor, master",Up to 12 years of school,Retired,United States,no,,Divorced/widowed,0.0,Yes,Isolated,1.0,0.0,,Program C,No,2.0,2.0,2.0,5.0,4.0,2.0,2.0,2.0,3.0,2.0,5.0,2.0,2.0,9.0,10.0,3.0,8.0,6.0,7.0,8.0,2.0,6.0,6.0,6.0,6.0,6.0,0.0,6.0,5.0,6.0,6.0,5.0,4.0,5.0,4.0,4.0,5.0,5.0,5.0,6.0,6.0,4.0,4.0,5.0,5.0,6.0,2.0,6.0,6.0,6.0,99.0,99.0,4.0,6.0,99.0,5.0,99.0,6.0,6.0,6.0,6.0,6.0,99.0,99.0,99.0,4.0,5.0,6.0,4.0,4.0,6.0,99.0,,6.0,6.0,6.0,6.0,6.0,5.0,6.0,6.0,5.0,6.0,1.0,5.0,6.0,4.0,6.0,4.0,4.0,3.0,6.0,5.0,5.0,1.0,4.0,5.0,4.0,1.0,,1.0,4.0,4.0,5.0,4.0,5.0,,2.4,3.0,4.0,4.0,5.333333,4.333333,5.666667,5.8
8121,3087,2020-04-16 10:22:50,HR,28,Female,"College degree, bachelor, master",College degree,Self-employed,United States,yes,Texas,Married/cohabiting,2.0,No,Isolated,1.0,2.0,,Program C,Not sure,3.0,4.0,2.0,3.0,3.0,3.0,3.0,2.0,4.0,3.0,4.0,4.0,3.0,3.0,8.0,4.0,5.0,5.0,3.0,4.0,4.0,5.0,6.0,6.0,5.0,4.0,5.0,5.0,6.0,6.0,3.0,4.0,4.0,4.0,4.0,4.0,4.0,6.0,3.0,5.0,5.0,6.0,2.0,5.0,5.0,5.0,2.0,5.0,6.0,4.0,5.0,5.0,4.0,4.0,5.0,1.0,3.0,5.0,4.0,6.0,6.0,6.0,6.0,5.0,4.0,4.0,3.0,1.0,5.0,5.0,5.0,6.0,Mogucnost rata nakon pandemije,6.0,4.0,5.0,6.0,6.0,4.0,6.0,6.0,5.0,6.0,3.0,4.0,5.0,3.0,3.0,1.0,3.0,1.0,4.0,4.0,4.0,4.0,4.0,6.0,6.0,4.0,,3.0,4.0,4.0,5.0,2.0,5.0,,3.2,3.666667,3.666667,4.666667,5.333333,5.0,5.0,5.4
8201,1109,2020-04-16 06:59:19,EN,64,Female,"Some College, short continuing education or equivalent",Up to 12 years of school,Part time employed,United States,no,Illinois,Divorced/widowed,1.0,Yes,Isolated,0.0,0.0,,Program D,No,3.0,3.0,3.0,4.0,3.0,2.0,4.0,4.0,2.0,3.0,3.0,4.0,3.0,9.0,9.0,8.0,8.0,9.0,7.0,7.0,7.0,5.0,5.0,4.0,5.0,5.0,6.0,4.0,5.0,4.0,3.0,5.0,4.0,5.0,4.0,5.0,4.0,5.0,5.0,5.0,5.0,5.0,3.0,5.0,5.0,5.0,3.0,5.0,6.0,5.0,5.0,5.0,5.0,5.0,5.0,5.0,4.0,5.0,3.0,5.0,5.0,5.0,5.0,4.0,5.0,6.0,5.0,5.0,5.0,5.0,5.0,4.0,,5.0,5.0,5.0,5.0,3.0,5.0,4.0,5.0,5.0,5.0,4.0,5.0,5.0,5.0,5.0,5.0,2.0,3.0,5.0,5.0,5.0,5.0,5.0,5.0,5.0,5.0,,3.0,3.0,3.0,3.0,3.0,4.0,,2.5,3.333333,3.666667,3.666667,5.0,4.666667,4.666667,4.7
8203,263,2020-04-17 06:40:10,EN,48,Female,"College degree, bachelor, master",Some College or equivalent,Full time employed,United States,no,Texas,Divorced/widowed,1.0,Yes,Isolated,0.0,0.0,,Program C,No,3.0,3.0,3.0,3.0,3.0,2.0,4.0,3.0,3.0,3.0,3.0,3.0,4.0,,,,,,,,,,,,,,,,,,,,,,,,,,,,,,,,,,,,,,,,,,,,,,,,,,,,,,,,,,,,,,,,,,,,,,,,,,,,,,,,,,,,,,,,,,,,,,,2.8,3.333333,,,,,,
8214,238,2020-04-17 06:19:09,EN,68,Female,"Some College, short continuing education or equivalent",Up to 12 years of school,Retired,United States,no,,Married/cohabiting,0.0,Yes,Life carries on with minor changes,2.0,0.0,,,,,,,,,,,,,,,,,,,,,,,,,,,,,,,,,,,,,,,,,,,,,,,,,,,,,,,,,,,,,,,,,,,,,,,,,,,,,,,,,,,,,,,,,,,,,,,,,,,,,,,,,,,,,,,,,,,,,,
8391,1322,2020-04-16 01:33:05,EN,58,Female,"College degree, bachelor, master",Up to 12 years of school,,United States,no,South Carolina,Single,3.0,Yes,Isolated,3.0,0.0,Program A,,No,2.0,3.0,3.0,4.0,2.0,4.0,,3.0,1.0,,4.0,4.0,4.0,5.0,9.0,1.0,5.0,3.0,6.0,6.0,2.0,6.0,6.0,5.0,5.0,3.0,1.0,3.0,6.0,5.0,2.0,3.0,1.0,6.0,2.0,5.0,5.0,2.0,5.0,4.0,4.0,3.0,1.0,5.0,6.0,4.0,5.0,5.0,99.0,99.0,99.0,99.0,6.0,2.0,99.0,2.0,99.0,6.0,4.0,6.0,4.0,5.0,99.0,4.0,1.0,4.0,5.0,4.0,4.0,5.0,5.0,99.0,,5.0,3.0,3.0,4.0,2.0,2.0,3.0,5.0,5.0,4.0,3.0,4.0,2.0,1.0,2.0,4.0,1.0,1.0,5.0,4.0,1.0,4.0,1.0,4.0,2.0,2.0,,3.0,5.0,1.0,,5.0,3.0,I have an autoimmune disease so I don't go out for anything.,2.75,4.0,3.333333,3.0,3.666667,5.666667,3.666667,3.6
8477,665,2020-04-15 22:59:16,EN,73,Female,"College degree, bachelor, master",Some College or equivalent,Retired,United States,no,Utah,Divorced/widowed,0.0,Yes,Isolated,0.0,0.0,,Program D,No,4.0,2.0,2.0,5.0,5.0,2.0,5.0,4.0,2.0,2.0,3.0,1.0,2.0,9.0,10.0,8.0,9.0,10.0,7.0,7.0,4.0,5.0,5.0,5.0,5.0,5.0,3.0,5.0,5.0,5.0,2.0,5.0,2.0,2.0,4.0,5.0,5.0,5.0,3.0,6.0,5.0,6.0,2.0,5.0,4.0,3.0,3.0,5.0,99.0,99.0,6.0,99.0,4.0,5.0,6.0,99.0,99.0,6.0,2.0,4.0,6.0,4.0,2.0,2.0,99.0,2.0,5.0,4.0,2.0,2.0,5.0,6.0,,6.0,5.0,6.0,6.0,5.0,6.0,5.0,5.0,5.0,6.0,5.0,5.0,6.0,5.0,5.0,5.0,1.0,1.0,4.0,6.0,5.0,4.0,3.0,5.0,6.0,6.0,,4.0,5.0,6.0,2.0,6.0,6.0,,1.9,2.0,2.666667,4.666667,5.666667,4.666667,4.0,5.5
8499,1333,2020-04-15 22:28:58,PT-BR,32,Female,PhD/Doctorate,Up to 9 years of school,Full time employed,United States,yes,Minnesota,Married/cohabiting,0.0,Yes,Isolated,1.0,0.0,Program A,,No,4.0,5.0,5.0,3.0,3.0,5.0,2.0,2.0,5.0,5.0,4.0,2.0,5.0,4.0,7.0,1.0,3.0,4.0,5.0,9.0,6.0,4.0,6.0,5.0,6.0,6.0,8.0,6.0,6.0,1.0,1.0,2.0,1.0,5.0,4.0,5.0,4.0,1.0,6.0,4.0,5.0,3.0,5.0,3.0,5.0,6.0,4.0,5.0,2.0,6.0,99.0,5.0,1.0,1.0,1.0,1.0,99.0,6.0,1.0,6.0,6.0,6.0,2.0,1.0,5.0,5.0,1.0,1.0,5.0,1.0,6.0,6.0,,6.0,6.0,6.0,6.0,6.0,6.0,6.0,6.0,5.0,6.0,3.0,1.0,6.0,1.0,5.0,6.0,1.0,1.0,6.0,6.0,6.0,4.0,5.0,6.0,2.0,5.0,,6.0,6.0,6.0,6.0,6.0,1.0,,4.3,3.666667,3.666667,2.0,4.0,3.333333,4.666667,5.9
8513,871,2020-04-15 22:07:35,EN,41,Female,"College degree, bachelor, master",Some College or equivalent,Part time employed,United States,no,Utah,Married/cohabiting,2.0,No,Isolated,1.0,0.0,Program B,,No,3.0,5.0,5.0,2.0,3.0,3.0,3.0,4.0,3.0,5.0,5.0,5.0,5.0,6.0,8.0,2.0,8.0,5.0,3.0,8.0,3.0,3.0,5.0,5.0,6.0,6.0,3.0,6.0,5.0,5.0,2.0,2.0,2.0,5.0,4.0,2.0,5.0,4.0,4.0,2.0,6.0,2.0,2.0,5.0,6.0,5.0,4.0,5.0,2.0,4.0,2.0,5.0,4.0,6.0,6.0,5.0,99.0,6.0,2.0,5.0,5.0,5.0,99.0,5.0,6.0,6.0,5.0,3.0,5.0,2.0,6.0,2.0,,3.0,4.0,5.0,4.0,5.0,4.0,4.0,5.0,4.0,5.0,2.0,5.0,5.0,2.0,5.0,6.0,2.0,3.0,6.0,5.0,4.0,4.0,2.0,2.0,5.0,3.0,,3.0,3.0,2.0,5.0,5.0,5.0,,3.6,5.0,4.666667,4.0,3.333333,5.333333,4.333333,4.3
8524,157,2020-04-16 21:34:02,EN,20,Male,"Some College, short continuing education or equivalent",College degree,Student,United States,no,MICHIGAN,Single,0.0,Yes,Isolated,3.0,,Program A,,,,,,,,,,,,,,,,,,,,,,,,,,,,,,,,,,,,,,,,,,,,,,,,,,,,,,,,,,,,,,,,,,,,,,,,,,,,,,,,,,,,,,,,,,,,,,,,,,,,,,,,,,,,,,,,,,,,,
8567,409,2020-04-16 20:50:51,ZH-T,24,Female,"College degree, bachelor, master",Some College or equivalent,Student,United States,yes,,Single,0.0,No,Life carries on with minor changes,,,Program A,,Not sure,3.0,3.0,3.0,4.0,4.0,3.0,3.0,2.0,4.0,3.0,2.0,3.0,5.0,3.0,5.0,6.0,5.0,5.0,5.0,,6.0,4.0,5.0,4.0,4.0,6.0,4.0,5.0,5.0,5.0,4.0,4.0,5.0,5.0,6.0,3.0,4.0,3.0,6.0,5.0,5.0,5.0,4.0,3.0,2.0,5.0,5.0,5.0,4.0,5.0,1.0,6.0,99.0,4.0,1.0,4.0,1.0,6.0,5.0,5.0,5.0,5.0,4.0,3.0,5.0,5.0,4.0,4.0,99.0,5.0,4.0,6.0,,,,,,,,,,,,,,,,,,,,,,,,,,,,,,,,,,,,3.0,3.333333,5.0,2.666667,5.0,2.666667,4.0,
8578,4224,2020-04-15 21:42:41,EN,77,Female,"College degree, bachelor, master",Up to 12 years of school,Retired,United States,no,Southern California,Married/cohabiting,0.0,Yes,Life carries on with minor changes,,,,Program D,,3.0,2.0,2.0,4.0,5.0,2.0,5.0,4.0,2.0,1.0,1.0,1.0,2.0,6.0,10.0,8.0,8.0,8.0,10.0,9.0,,4.0,4.0,4.0,6.0,6.0,4.0,5.0,6.0,5.0,2.0,4.0,1.0,3.0,1.0,6.0,2.0,4.0,3.0,5.0,6.0,5.0,4.0,4.0,5.0,6.0,3.0,5.0,1.0,2.0,99.0,99.0,6.0,6.0,99.0,2.0,99.0,5.0,2.0,4.0,4.0,2.0,2.0,2.0,2.0,2.0,99.0,99.0,1.0,99.0,4.0,99.0,,5.0,6.0,4.0,5.0,6.0,5.0,6.0,6.0,5.0,5.0,5.0,6.0,4.0,1.0,1.0,1.0,1.0,1.0,5.0,2.0,1.0,5.0,1.0,6.0,1.0,4.0,,5.0,6.0,3.0,1.0,1.0,6.0,Vote for Biden.,1.8,1.333333,1.666667,3.333333,5.333333,4.0,5.0,5.3
8580,979,2020-04-16 20:45:29,EN,47,Female,"College degree, bachelor, master",Up to 12 years of school,Full time employed,United States,no,Utah,Married/cohabiting,3.0,Yes,Life carries on with minor changes,,,,,,2.0,3.0,2.0,4.0,3.0,2.0,4.0,4.0,1.0,2.0,1.0,2.0,2.0,4.0,7.0,3.0,4.0,5.0,5.0,5.0,4.0,5.0,6.0,6.0,5.0,5.0,3.0,5.0,5.0,5.0,2.0,3.0,5.0,3.0,5.0,4.0,4.0,4.0,4.0,4.0,5.0,5.0,4.0,4.0,5.0,3.0,4.0,5.0,4.0,5.0,99.0,2.0,5.0,3.0,2.0,4.0,3.0,5.0,5.0,3.0,5.0,5.0,3.0,2.0,3.0,2.0,5.0,4.0,5.0,2.0,5.0,3.0,,5.0,4.0,5.0,5.0,5.0,3.0,5.0,5.0,5.0,5.0,5.0,4.0,5.0,5.0,4.0,4.0,4.0,4.0,4.0,4.0,5.0,4.0,4.0,4.0,3.0,4.0,,4.0,3.0,3.0,4.0,4.0,5.0,,2.1,1.666667,3.666667,3.666667,4.666667,4.0,3.666667,4.7
8605,629,2020-04-15 20:13:51,EN,52,Male,"College degree, bachelor, master",Some College or equivalent,Full time employed,United States,no,Texas,Married/cohabiting,1.0,Yes,Life carries on with minor changes,1.0,0.0,Program A,,No,3.0,2.0,4.0,4.0,2.0,2.0,4.0,3.0,3.0,2.0,2.0,3.0,2.0,5.0,5.0,1.0,2.0,5.0,3.0,5.0,0.0,5.0,6.0,6.0,6.0,6.0,0.0,5.0,4.0,5.0,2.0,3.0,3.0,3.0,3.0,5.0,2.0,1.0,5.0,4.0,4.0,4.0,4.0,4.0,4.0,4.0,4.0,6.0,4.0,3.0,99.0,5.0,3.0,3.0,1.0,3.0,99.0,3.0,3.0,4.0,4.0,4.0,1.0,3.0,2.0,3.0,3.0,3.0,5.0,3.0,4.0,3.0,,5.0,4.0,4.0,5.0,5.0,5.0,5.0,5.0,5.0,5.0,2.0,4.0,2.0,3.0,2.0,4.0,4.0,3.0,2.0,3.0,3.0,2.0,3.0,4.0,1.0,3.0,,2.0,4.0,3.0,3.0,3.0,3.0,,2.7,2.333333,2.666667,1.666667,4.0,3.666667,4.333333,4.8
8609,976,2020-04-15 20:06:23,EN,64,Female,PhD/Doctorate,College degree,Retired,United States,no,North Carolina,Married/cohabiting,0.0,Yes,Life carries on with minor changes,1.0,0.0,Program B,,No,2.0,2.0,2.0,5.0,5.0,2.0,5.0,4.0,1.0,2.0,2.0,2.0,3.0,6.0,9.0,5.0,7.0,7.0,6.0,10.0,2.0,5.0,5.0,4.0,5.0,5.0,0.0,6.0,5.0,5.0,4.0,4.0,1.0,5.0,4.0,4.0,5.0,5.0,4.0,5.0,6.0,6.0,3.0,6.0,5.0,4.0,5.0,5.0,4.0,5.0,99.0,4.0,4.0,6.0,5.0,2.0,99.0,6.0,5.0,4.0,6.0,4.0,99.0,6.0,3.0,3.0,5.0,3.0,4.0,1.0,6.0,99.0,,5.0,5.0,4.0,5.0,5.0,4.0,6.0,4.0,4.0,5.0,1.0,4.0,6.0,2.0,4.0,4.0,2.0,1.0,2.0,6.0,4.0,5.0,4.0,6.0,3.0,2.0,,1.0,4.0,3.0,4.0,5.0,2.0,,1.6,2.333333,4.0,4.333333,5.666667,5.0,3.666667,4.7
8637,634,2020-04-16 18:49:10,EN,41,Female,"College degree, bachelor, master",College degree,Full time employed,United States,no,Ma,Married/cohabiting,3.0,Yes,Isolated,1.0,3.0,Program A,,No,2.0,2.0,4.0,4.0,3.0,3.0,4.0,3.0,2.0,4.0,1.0,1.0,4.0,8.0,9.0,4.0,7.0,7.0,6.0,7.0,5.0,5.0,5.0,5.0,5.0,5.0,4.0,5.0,5.0,5.0,4.0,4.0,3.0,3.0,2.0,4.0,5.0,4.0,3.0,4.0,3.0,4.0,3.0,6.0,5.0,3.0,2.0,5.0,4.0,5.0,2.0,4.0,4.0,5.0,2.0,2.0,2.0,4.0,3.0,4.0,5.0,5.0,6.0,5.0,2.0,2.0,4.0,4.0,2.0,2.0,6.0,2.0,,5.0,5.0,3.0,5.0,5.0,4.0,5.0,5.0,4.0,5.0,2.0,5.0,3.0,5.0,2.0,3.0,2.0,5.0,2.0,5.0,5.0,2.0,2.0,2.0,1.0,4.0,,2.0,5.0,5.0,2.0,2.0,2.0,,2.7,2.0,2.666667,4.333333,3.666667,5.0,4.333333,4.6
8643,4307,2020-04-16 19:34:39,EN,68,Female,"College degree, bachelor, master",Up to 9 years of school,Full time employed,United States,no,Wa,Other or would rather not say,,Yes,Isolated,4.0,0.0,,Program D,,,,,,,,,,,,,,,,,,,,,,,,,,,,,,,,,,,,,,,,,,,,,,,,,,,,,,,,,,,,,,,,,,,,,,,,,,,,,,,,,,,,,,,,,,,,,,,,,,,,,,,,,,,,,,,,,,,,
8652,1739,2020-04-16 18:07:43,EN,55,Female,"Some College, short continuing education or equivalent",College degree,Not employed,United States,no,TX,Married/cohabiting,0.0,Yes,Life carries on with minor changes,1.0,0.0,Program A,,Not sure,3.0,4.0,4.0,4.0,3.0,2.0,5.0,1.0,5.0,4.0,2.0,5.0,5.0,4.0,7.0,1.0,0.0,2.0,2.0,4.0,0.0,6.0,6.0,6.0,6.0,6.0,0.0,5.0,6.0,6.0,1.0,4.0,1.0,5.0,4.0,5.0,2.0,1.0,6.0,5.0,5.0,5.0,4.0,5.0,4.0,3.0,5.0,4.0,1.0,1.0,4.0,1.0,4.0,1.0,1.0,1.0,1.0,1.0,4.0,5.0,6.0,6.0,1.0,1.0,1.0,3.0,2.0,1.0,2.0,1.0,4.0,1.0,Oligarchy exploiting crisis to gain even more power.,6.0,6.0,5.0,6.0,6.0,6.0,6.0,6.0,6.0,6.0,1.0,1.0,4.0,1.0,3.0,4.0,3.0,6.0,6.0,2.0,4.0,1.0,1.0,6.0,1.0,1.0,My memory loss is very soothing.,1.0,4.0,1.0,1.0,3.0,4.0,,3.3,4.0,3.666667,1.333333,5.0,4.0,3.0,5.9
8658,2296,2020-04-15 17:34:56,EN,82,Female,"Some College, short continuing education or equivalent",Up to 12 years of school,Retired,United States,no,Florida,Married/cohabiting,0.0,Yes,Life carries on with minor changes,1.0,0.0,,Program C,No,3.0,2.0,3.0,5.0,4.0,1.0,4.0,4.0,2.0,1.0,1.0,1.0,1.0,9.0,9.0,0.0,10.0,10.0,10.0,9.0,0.0,5.0,6.0,6.0,6.0,6.0,0.0,6.0,6.0,6.0,1.0,4.0,2.0,5.0,2.0,4.0,6.0,4.0,4.0,4.0,5.0,2.0,2.0,5.0,6.0,5.0,2.0,4.0,99.0,2.0,99.0,99.0,2.0,99.0,4.0,1.0,99.0,5.0,4.0,6.0,6.0,6.0,99.0,99.0,2.0,99.0,2.0,5.0,6.0,2.0,4.0,99.0,,6.0,6.0,6.0,6.0,6.0,6.0,6.0,6.0,4.0,6.0,6.0,6.0,6.0,6.0,6.0,6.0,5.0,5.0,6.0,5.0,5.0,6.0,5.0,5.0,6.0,6.0,,5.0,6.0,4.0,5.0,5.0,5.0,"Routines, keeping busy, happy outlook, finish chores that you have been meaning to for a long time. i.e sorting closets, donate unwanted clothing,",1.9,1.0,3.333333,4.333333,3.666667,5.333333,4.666667,5.8
8666,2455,2020-04-15 17:04:14,EN,75,Female,"College degree, bachelor, master",Up to 12 years of school,Retired,United States,no,Virginia,Married/cohabiting,0.0,Yes,Isolated,1.0,0.0,,Program D,No,3.0,3.0,3.0,4.0,4.0,2.0,5.0,5.0,2.0,1.0,1.0,2.0,2.0,7.0,9.0,1.0,3.0,5.0,5.0,9.0,0.0,6.0,6.0,6.0,6.0,6.0,0.0,6.0,6.0,5.0,2.0,3.0,5.0,3.0,2.0,5.0,2.0,3.0,4.0,5.0,5.0,5.0,2.0,4.0,5.0,4.0,5.0,5.0,2.0,2.0,99.0,99.0,4.0,5.0,4.0,4.0,99.0,6.0,3.0,5.0,6.0,5.0,99.0,4.0,1.0,2.0,5.0,2.0,3.0,1.0,5.0,4.0,,6.0,6.0,5.0,6.0,6.0,6.0,6.0,6.0,6.0,6.0,2.0,1.0,6.0,1.0,6.0,5.0,5.0,3.0,4.0,6.0,6.0,4.0,5.0,3.0,5.0,5.0,Heading up the Coronavirus Task Force for the senior co-housing community where I live.,4.0,5.0,5.0,5.0,5.0,5.0,"Our income and health insurance remain intact, so far.",2.0,1.666667,2.333333,2.666667,5.0,4.666667,3.666667,5.9
8676,936,2020-04-16 16:07:45,EN,73,Female,"College degree, bachelor, master",Up to 9 years of school,Retired,United States,no,Utah,Single,0.0,Yes,Isolated,0.0,0.0,,Program D,No,2.0,2.0,1.0,5.0,4.0,2.0,5.0,5.0,1.0,1.0,1.0,1.0,2.0,8.0,10.0,2.0,7.0,9.0,3.0,7.0,1.0,5.0,5.0,5.0,5.0,5.0,1.0,6.0,6.0,6.0,2.0,5.0,5.0,2.0,1.0,6.0,2.0,2.0,6.0,6.0,6.0,2.0,2.0,5.0,5.0,6.0,2.0,6.0,2.0,1.0,1.0,2.0,2.0,2.0,4.0,1.0,1.0,3.0,2.0,3.0,4.0,2.0,2.0,1.0,2.0,1.0,1.0,2.0,1.0,1.0,2.0,1.0,,6.0,5.0,6.0,6.0,6.0,6.0,6.0,6.0,6.0,6.0,4.0,2.0,6.0,2.0,4.0,6.0,2.0,5.0,6.0,6.0,4.0,5.0,4.0,6.0,6.0,4.0,,1.0,5.0,6.0,5.0,5.0,3.0,,1.4,1.333333,1.333333,1.666667,4.666667,5.0,5.666667,5.9
8677,261,2020-04-16 15:55:31,EN,59,Male,"College degree, bachelor, master",Up to 12 years of school,Full time employed,United States,no,New Jersey,Married/cohabiting,2.0,Yes,Isolated,1.0,0.0,,,,,,,,,,,,,,,,,,,,,,,,,,,,,,,,,,,,,,,,,,,,,,,,,,,,,,,,,,,,,,,,,,,,,,,,,,,,,,,,,,,,,,,,,,,,,,,,,,,,,,,,,,,,,,,,,,,,,,
8701,987,2020-04-16 15:20:45,EN,50,Female,"College degree, bachelor, master",Up to 12 years of school,Full time employed,United States,no,Ohio,Married/cohabiting,0.0,Yes,Life carries on with minor changes,1.0,0.0,,Program D,Yes,2.0,1.0,3.0,4.0,4.0,2.0,4.0,4.0,2.0,2.0,3.0,3.0,4.0,7.0,9.0,8.0,9.0,8.0,9.0,6.0,9.0,4.0,4.0,4.0,4.0,4.0,6.0,5.0,5.0,5.0,3.0,3.0,2.0,4.0,3.0,6.0,4.0,5.0,4.0,3.0,4.0,3.0,3.0,4.0,5.0,5.0,2.0,5.0,2.0,4.0,1.0,3.0,2.0,4.0,4.0,5.0,99.0,5.0,4.0,4.0,3.0,4.0,4.0,4.0,3.0,4.0,4.0,4.0,5.0,2.0,4.0,1.0,,5.0,4.0,4.0,3.0,4.0,4.0,3.0,5.0,3.0,5.0,4.0,5.0,4.0,5.0,4.0,4.0,4.0,1.0,4.0,4.0,3.0,4.0,4.0,5.0,4.0,5.0,,5.0,4.0,2.0,4.0,4.0,3.0,,2.0,3.333333,2.666667,4.0,3.333333,4.333333,5.0,4.0
8704,531,2020-04-16 15:09:30,EN,48,Female,"College degree, bachelor, master",Up to 12 years of school,Full time employed,United States,no,Illinois,Other or would rather not say,2.0,Yes,Isolated,3.0,0.0,Program A,,No,3.0,4.0,3.0,3.0,3.0,2.0,2.0,3.0,4.0,2.0,2.0,2.0,3.0,6.0,9.0,5.0,8.0,7.0,8.0,7.0,5.0,5.0,5.0,5.0,5.0,5.0,3.0,5.0,6.0,6.0,2.0,5.0,2.0,2.0,3.0,4.0,2.0,2.0,5.0,3.0,5.0,2.0,4.0,4.0,5.0,4.0,5.0,5.0,2.0,5.0,4.0,1.0,2.0,3.0,1.0,2.0,99.0,6.0,5.0,5.0,5.0,5.0,2.0,2.0,1.0,2.0,3.0,2.0,2.0,1.0,6.0,2.0,,,,,,,,,,,,,,,,,,,,,,,,,,,,,,,,,,,,3.1,2.333333,2.666667,2.0,3.333333,4.0,3.666667,
8706,1747,2020-04-15 15:28:33,EN,63,Male,"Some College, short continuing education or equivalent",Some College or equivalent,Self-employed,United States,no,North Carolina,Divorced/widowed,0.0,Yes,Life carries on with minor changes,0.0,0.0,Program B,,No,3.0,3.0,4.0,4.0,3.0,2.0,4.0,3.0,2.0,2.0,4.0,3.0,3.0,9.0,10.0,5.0,7.0,8.0,6.0,,3.0,3.0,4.0,4.0,3.0,4.0,0.0,5.0,5.0,5.0,2.0,4.0,3.0,5.0,4.0,4.0,2.0,2.0,5.0,4.0,5.0,4.0,2.0,4.0,5.0,5.0,3.0,5.0,5.0,2.0,99.0,99.0,2.0,5.0,2.0,99.0,99.0,3.0,3.0,4.0,4.0,4.0,99.0,4.0,2.0,4.0,4.0,3.0,2.0,2.0,3.0,2.0,,3.0,4.0,4.0,4.0,3.0,4.0,5.0,4.0,4.0,3.0,2.0,4.0,4.0,4.0,4.0,4.0,2.0,2.0,2.0,4.0,3.0,2.0,3.0,4.0,2.0,2.0,,2.0,4.0,3.0,3.0,3.0,3.0,,2.6,3.333333,4.0,2.0,4.333333,4.666667,4.666667,3.8
8721,703,2020-04-15 14:47:43,EN,64,Female,"College degree, bachelor, master",College degree,Retired,United States,no,virginia,Married/cohabiting,2.0,Yes,Isolated,2.0,0.0,Program A,,No,4.0,5.0,4.0,5.0,3.0,4.0,5.0,3.0,1.0,3.0,2.0,1.0,4.0,5.0,9.0,0.0,7.0,7.0,0.0,8.0,0.0,5.0,5.0,5.0,6.0,6.0,0.0,6.0,6.0,6.0,1.0,3.0,4.0,4.0,3.0,5.0,6.0,5.0,3.0,5.0,6.0,5.0,2.0,6.0,6.0,2.0,2.0,6.0,5.0,99.0,99.0,99.0,4.0,5.0,2.0,2.0,99.0,6.0,6.0,6.0,6.0,6.0,1.0,1.0,2.0,4.0,5.0,99.0,2.0,99.0,6.0,5.0,,6.0,6.0,6.0,6.0,6.0,6.0,6.0,6.0,6.0,6.0,2.0,6.0,6.0,1.0,6.0,5.0,2.0,5.0,5.0,6.0,5.0,6.0,5.0,5.0,5.0,6.0,,2.0,5.0,5.0,6.0,2.0,5.0,,2.9,2.333333,3.0,5.0,5.333333,5.666667,4.333333,6.0
8724,948,2020-04-15 14:46:27,EN,61,Female,"College degree, bachelor, master",Up to 12 years of school,Retired,United States,no,South Carolina,Married/cohabiting,0.0,Yes,Life carries on with minor changes,1.0,0.0,,Program D,No,1.0,1.0,1.0,5.0,4.0,1.0,5.0,4.0,1.0,1.0,2.0,1.0,3.0,5.0,9.0,3.0,8.0,8.0,9.0,8.0,3.0,5.0,5.0,5.0,4.0,4.0,3.0,6.0,6.0,5.0,1.0,3.0,2.0,1.0,1.0,,2.0,2.0,5.0,5.0,6.0,5.0,3.0,5.0,5.0,4.0,5.0,5.0,2.0,1.0,1.0,1.0,2.0,1.0,1.0,1.0,1.0,2.0,2.0,3.0,3.0,5.0,1.0,1.0,1.0,2.0,1.0,1.0,4.0,1.0,2.0,1.0,I am unable to go to my sister who just lost her husband (non-virus death). She is alone.,5.0,5.0,5.0,5.0,5.0,5.0,5.0,5.0,5.0,5.0,4.0,1.0,6.0,1.0,1.0,5.0,1.0,5.0,6.0,4.0,5.0,4.0,1.0,6.0,1.0,5.0,,5.0,5.0,5.0,5.0,5.0,2.0,,1.2,2.0,1.0,2.0,5.333333,4.666667,3.666667,5.0
8731,829,2020-04-15 14:32:28,EN,42,Female,"College degree, bachelor, master",College degree,Not employed,United States,no,Ma,Married/cohabiting,2.0,Yes,Isolated,1.0,2.0,Program A,,No,2.0,3.0,5.0,4.0,4.0,2.0,3.0,5.0,1.0,2.0,1.0,1.0,1.0,6.0,7.0,1.0,4.0,4.0,1.0,10.0,0.0,6.0,6.0,6.0,6.0,6.0,0.0,6.0,6.0,6.0,2.0,1.0,6.0,6.0,6.0,3.0,3.0,2.0,6.0,6.0,3.0,6.0,4.0,6.0,4.0,4.0,3.0,5.0,1.0,1.0,1.0,1.0,3.0,1.0,1.0,1.0,4.0,5.0,3.0,5.0,3.0,5.0,1.0,1.0,1.0,1.0,1.0,3.0,1.0,1.0,3.0,4.0,,6.0,6.0,6.0,6.0,6.0,6.0,6.0,6.0,4.0,6.0,3.0,4.0,6.0,3.0,4.0,6.0,2.0,2.0,6.0,4.0,6.0,6.0,4.0,6.0,1.0,2.0,,4.0,1.0,6.0,2.0,5.0,3.0,"We already homeschool and work from home, so staying in isolation has not been a big inconvenience",2.3,1.0,5.333333,2.0,5.0,4.333333,4.333333,5.8
8748,842,2020-04-15 14:08:54,EN,48,Female,"College degree, bachelor, master",Some College or equivalent,Full time employed,United States,no,illinois,Married/cohabiting,3.0,No,Life carries on with minor changes,3.0,0.0,,Program C,No,2.0,3.0,3.0,4.0,2.0,2.0,3.0,3.0,3.0,2.0,3.0,2.0,4.0,6.0,9.0,7.0,7.0,7.0,8.0,6.0,7.0,5.0,5.0,5.0,5.0,5.0,7.0,5.0,4.0,5.0,3.0,5.0,3.0,4.0,4.0,5.0,5.0,5.0,3.0,4.0,5.0,3.0,4.0,5.0,5.0,4.0,3.0,5.0,5.0,5.0,5.0,6.0,6.0,4.0,4.0,5.0,99.0,6.0,4.0,4.0,4.0,5.0,5.0,5.0,4.0,4.0,5.0,5.0,4.0,2.0,6.0,5.0,,5.0,5.0,5.0,5.0,5.0,5.0,5.0,5.0,5.0,5.0,4.0,4.0,4.0,4.0,4.0,3.0,3.0,3.0,5.0,4.0,4.0,4.0,4.0,4.0,4.0,3.0,,4.0,4.0,3.0,4.0,3.0,4.0,,2.7,3.0,3.333333,4.666667,4.0,4.333333,4.333333,5.0
8760,13655,2020-04-15 17:33:55,EN,43,Male,PhD/Doctorate,PhD/Doctorate,Full time employed,United States,,ca,Married/cohabiting,1.0,No,Life carries on with minor changes,,,,Program C,Not sure,1.0,1.0,1.0,5.0,3.0,1.0,5.0,4.0,2.0,1.0,1.0,1.0,1.0,8.0,8.0,4.0,5.0,7.0,4.0,8.0,4.0,4.0,4.0,4.0,6.0,6.0,1.0,5.0,5.0,5.0,2.0,5.0,1.0,2.0,3.0,3.0,2.0,2.0,4.0,4.0,5.0,5.0,4.0,5.0,3.0,5.0,3.0,5.0,2.0,2.0,2.0,3.0,2.0,3.0,1.0,2.0,3.0,5.0,4.0,4.0,4.0,5.0,2.0,2.0,2.0,2.0,2.0,3.0,3.0,2.0,4.0,3.0,,5.0,5.0,5.0,5.0,5.0,5.0,5.0,5.0,5.0,5.0,4.0,4.0,4.0,3.0,1.0,4.0,1.0,1.0,4.0,2.0,3.0,3.0,5.0,4.0,2.0,3.0,,3.0,2.0,3.0,4.0,4.0,2.0,,1.4,1.0,3.0,2.333333,4.666667,3.666667,4.666667,5.0
8808,1690,2020-04-15 13:19:30,FI,69,,"Some College, short continuing education or equivalent",,Self-employed,United States,no,,Married/cohabiting,0.0,No,Life carries on with minor changes,1.0,0.0,,Program D,No,4.0,3.0,1.0,5.0,3.0,1.0,5.0,5.0,4.0,1.0,1.0,3.0,1.0,5.0,9.0,0.0,8.0,0.0,0.0,9.0,0.0,3.0,5.0,4.0,5.0,5.0,0.0,5.0,6.0,6.0,1.0,2.0,6.0,4.0,2.0,5.0,2.0,6.0,4.0,5.0,6.0,5.0,2.0,4.0,5.0,4.0,2.0,6.0,3.0,99.0,99.0,99.0,2.0,1.0,99.0,1.0,99.0,5.0,3.0,6.0,6.0,6.0,99.0,99.0,99.0,99.0,2.0,99.0,4.0,99.0,5.0,5.0,,5.0,5.0,5.0,6.0,6.0,6.0,6.0,6.0,,6.0,1.0,6.0,6.0,1.0,1.0,5.0,1.0,1.0,3.0,5.0,,,,5.0,1.0,1.0,,1.0,4.0,4.0,2.0,2.0,5.0,,2.0,1.666667,2.666667,3.666667,5.333333,4.666667,5.0,5.666667
8810,2006,2020-04-15 13:23:19,EN,63,Female,"College degree, bachelor, master",Some College or equivalent,Retired,United States,no,California,Divorced/widowed,0.0,Yes,Life carries on with minor changes,1.0,0.0,,Program C,No,4.0,4.0,4.0,3.0,3.0,3.0,4.0,3.0,4.0,2.0,4.0,4.0,4.0,7.0,8.0,3.0,6.0,7.0,7.0,9.0,1.0,6.0,6.0,6.0,6.0,6.0,0.0,5.0,6.0,6.0,1.0,4.0,5.0,6.0,5.0,5.0,4.0,2.0,6.0,6.0,6.0,6.0,4.0,5.0,6.0,5.0,4.0,5.0,99.0,99.0,99.0,99.0,2.0,99.0,99.0,6.0,99.0,5.0,99.0,6.0,6.0,6.0,99.0,99.0,99.0,2.0,99.0,99.0,99.0,99.0,99.0,99.0,,5.0,5.0,6.0,4.0,5.0,5.0,5.0,6.0,5.0,5.0,2.0,3.0,2.0,5.0,3.0,6.0,5.0,5.0,5.0,4.0,5.0,5.0,5.0,5.0,4.0,5.0,,1.0,1.0,5.0,5.0,1.0,3.0,,3.2,4.0,4.333333,2.333333,6.0,4.666667,4.333333,5.1
8823,981,2020-04-15 12:56:52,EN,62,Female,"College degree, bachelor, master",PhD/Doctorate,Part time employed,United States,no,NC,Divorced/widowed,0.0,Yes,Life carries on with minor changes,1.0,0.0,Program A,,No,3.0,2.0,3.0,5.0,4.0,2.0,4.0,5.0,3.0,1.0,1.0,1.0,1.0,6.0,8.0,2.0,4.0,7.0,6.0,7.0,2.0,3.0,3.0,3.0,3.0,3.0,2.0,6.0,5.0,5.0,2.0,2.0,4.0,5.0,3.0,5.0,3.0,2.0,5.0,4.0,2.0,6.0,4.0,3.0,5.0,5.0,2.0,4.0,3.0,2.0,99.0,2.0,2.0,4.0,1.0,2.0,99.0,5.0,2.0,4.0,4.0,4.0,2.0,2.0,2.0,2.0,4.0,4.0,2.0,2.0,4.0,1.0,,6.0,6.0,6.0,6.0,6.0,6.0,6.0,6.0,6.0,6.0,4.0,3.0,4.0,2.0,4.0,4.0,1.0,1.0,2.0,4.0,5.0,4.0,4.0,5.0,1.0,4.0,,3.0,4.0,4.0,4.0,4.0,3.0,Decided to grow some food this summer. I hadn't planned on doing this before.,2.0,1.0,3.333333,2.333333,4.0,3.666667,4.666667,6.0
8840,868,2020-04-16 12:34:45,EN,47,Female,PhD/Doctorate,PhD/Doctorate,Full time employed,United States,no,Oregon,Single,0.0,No,Isolated,0.0,0.0,Program B,,No,2.0,3.0,4.0,3.0,3.0,3.0,4.0,3.0,3.0,2.0,5.0,5.0,5.0,4.0,9.0,1.0,1.0,6.0,1.0,10.0,0.0,5.0,2.0,2.0,6.0,6.0,0.0,5.0,2.0,2.0,2.0,3.0,4.0,5.0,5.0,3.0,5.0,2.0,5.0,6.0,2.0,4.0,4.0,6.0,5.0,4.0,6.0,5.0,3.0,5.0,99.0,6.0,2.0,5.0,4.0,99.0,99.0,6.0,4.0,3.0,3.0,5.0,1.0,1.0,1.0,6.0,1.0,2.0,3.0,1.0,6.0,4.0,,4.0,5.0,4.0,5.0,4.0,6.0,5.0,5.0,5.0,4.0,1.0,6.0,5.0,5.0,4.0,3.0,4.0,4.0,5.0,4.0,4.0,1.0,5.0,5.0,5.0,2.0,,1.0,2.0,2.0,2.0,1.0,2.0,,2.8,5.0,4.666667,3.0,4.0,4.666667,3.333333,4.7
8841,712,2020-04-15 12:30:37,EN,39,Female,"College degree, bachelor, master",Some College or equivalent,Not employed,United States,no,ut,Married/cohabiting,0.0,No,Life carries on with minor changes,3.0,0.0,,Program D,No,1.0,2.0,2.0,1.0,1.0,3.0,3.0,2.0,2.0,3.0,1.0,1.0,4.0,2.0,5.0,7.0,7.0,7.0,7.0,8.0,8.0,5.0,3.0,3.0,5.0,5.0,5.0,6.0,5.0,5.0,2.0,4.0,1.0,2.0,3.0,3.0,5.0,4.0,2.0,5.0,5.0,3.0,5.0,3.0,5.0,3.0,3.0,5.0,6.0,6.0,1.0,6.0,1.0,2.0,1.0,2.0,1.0,6.0,1.0,3.0,3.0,3.0,1.0,1.0,2.0,1.0,1.0,5.0,1.0,1.0,5.0,2.0,,6.0,5.0,6.0,6.0,5.0,4.0,6.0,5.0,4.0,6.0,5.0,1.0,5.0,1.0,5.0,1.0,1.0,1.0,5.0,6.0,1.0,5.0,3.0,6.0,1.0,4.0,,5.0,5.0,4.0,1.0,1.0,2.0,,3.0,2.0,3.0,4.666667,4.333333,3.333333,4.0,5.3
8843,1371,2020-04-15 12:39:02,EN,78,Male,"College degree, bachelor, master",College degree,Retired,United States,no,Utah,Married/cohabiting,0.0,Yes,Isolated,1.0,0.0,,Program D,No,2.0,2.0,2.0,5.0,2.0,1.0,5.0,5.0,1.0,1.0,1.0,2.0,4.0,7.0,9.0,,,8.0,7.0,8.0,1.0,6.0,6.0,6.0,6.0,6.0,0.0,5.0,5.0,6.0,2.0,4.0,2.0,5.0,2.0,5.0,5.0,5.0,3.0,4.0,5.0,4.0,4.0,4.0,5.0,5.0,2.0,5.0,2.0,99.0,2.0,99.0,2.0,4.0,2.0,2.0,99.0,5.0,3.0,5.0,5.0,4.0,99.0,4.0,2.0,3.0,4.0,2.0,4.0,2.0,5.0,2.0,,6.0,5.0,5.0,6.0,5.0,5.0,5.0,6.0,5.0,6.0,4.0,5.0,5.0,2.0,4.0,5.0,2.0,2.0,4.0,4.0,4.0,4.0,5.0,5.0,2.0,3.0,,2.0,3.0,2.0,4.0,4.0,5.0,,1.6,2.333333,3.0,4.666667,4.333333,4.0,5.0,5.4
8844,474,2020-04-16 12:23:49,EN,20,Female,"Some College, short continuing education or equivalent",Some College or equivalent,Student,United States,no,Utah,Single,0.0,Not sure,Life carries on with minor changes,,,,Program D,No,4.0,3.0,3.0,3.0,3.0,3.0,3.0,3.0,4.0,3.0,3.0,4.0,3.0,4.0,8.0,2.0,,3.0,4.0,7.0,2.0,5.0,5.0,5.0,5.0,5.0,3.0,5.0,5.0,5.0,3.0,4.0,2.0,5.0,6.0,5.0,3.0,3.0,5.0,4.0,6.0,4.0,3.0,5.0,5.0,5.0,3.0,5.0,5.0,6.0,99.0,5.0,5.0,4.0,4.0,5.0,99.0,6.0,6.0,5.0,5.0,6.0,99.0,5.0,4.0,5.0,4.0,5.0,4.0,5.0,5.0,99.0,,,,,,,,,,,,,,,,,,,,,,,,,,,,,,,,,,,,3.2,3.333333,4.333333,2.666667,4.666667,4.666667,4.666667,
8846,1203,2020-04-15 12:34:03,EN,68,Female,"College degree, bachelor, master",Some College or equivalent,Retired,United States,no,Virginia,Married/cohabiting,0.0,Yes,Isolated,1.0,0.0,Program A,,No,3.0,5.0,5.0,4.0,4.0,4.0,3.0,1.0,5.0,3.0,3.0,5.0,5.0,7.0,8.0,,5.0,5.0,6.0,6.0,,5.0,5.0,5.0,6.0,6.0,0.0,5.0,5.0,6.0,3.0,4.0,4.0,4.0,2.0,5.0,4.0,3.0,3.0,4.0,5.0,3.0,5.0,5.0,4.0,3.0,4.0,3.0,1.0,99.0,99.0,99.0,4.0,6.0,99.0,6.0,99.0,6.0,5.0,6.0,6.0,6.0,99.0,5.0,3.0,6.0,6.0,6.0,5.0,3.0,5.0,6.0,Donald Trump is going to kill us all.,4.0,5.0,5.0,4.0,5.0,5.0,5.0,6.0,4.0,5.0,1.0,3.0,2.0,2.0,3.0,4.0,1.0,1.0,2.0,3.0,2.0,3.0,2.0,3.0,1.0,1.0,,2.0,3.0,3.0,3.0,5.0,3.0,,3.7,4.333333,2.666667,3.666667,4.0,3.666667,3.0,4.8
8855,709,2020-04-15 12:12:07,EN,51,Female,"College degree, bachelor, master",College degree,Full time employed,United States,no,Utah,Married/cohabiting,2.0,Yes,Life carries on with minor changes,4.0,0.0,Program A,,No,3.0,3.0,4.0,3.0,3.0,3.0,3.0,2.0,3.0,3.0,1.0,1.0,4.0,4.0,9.0,1.0,3.0,4.0,3.0,3.0,0.0,5.0,5.0,5.0,5.0,6.0,2.0,5.0,5.0,6.0,2.0,3.0,4.0,5.0,3.0,5.0,3.0,1.0,5.0,4.0,6.0,3.0,3.0,5.0,5.0,2.0,5.0,5.0,99.0,1.0,3.0,99.0,3.0,4.0,4.0,5.0,99.0,6.0,3.0,5.0,5.0,5.0,1.0,1.0,4.0,5.0,2.0,5.0,6.0,2.0,6.0,4.0,,5.0,5.0,6.0,5.0,6.0,6.0,5.0,6.0,5.0,5.0,2.0,5.0,5.0,4.0,3.0,5.0,2.0,2.0,5.0,5.0,2.0,2.0,4.0,5.0,2.0,2.0,,6.0,6.0,6.0,5.0,6.0,2.0,,3.2,2.0,3.333333,2.0,4.333333,4.666667,3.0,5.4
8875,1081,2020-04-15 11:55:40,EN,69,Female,"Some College, short continuing education or equivalent",Up to 9 years of school,Retired,United States,no,Texas,Single,0.0,Yes,Isolated in medical facility of similar location,0.0,0.0,,Program D,No,2.0,4.0,4.0,3.0,3.0,3.0,3.0,3.0,4.0,3.0,5.0,4.0,5.0,7.0,9.0,1.0,4.0,9.0,5.0,8.0,2.0,5.0,5.0,5.0,6.0,6.0,0.0,5.0,4.0,5.0,2.0,3.0,4.0,5.0,2.0,5.0,3.0,4.0,4.0,3.0,6.0,4.0,3.0,5.0,6.0,3.0,4.0,5.0,4.0,4.0,99.0,2.0,5.0,6.0,1.0,3.0,99.0,4.0,5.0,6.0,6.0,6.0,3.0,3.0,2.0,6.0,4.0,5.0,6.0,6.0,5.0,1.0,,6.0,5.0,5.0,6.0,6.0,5.0,6.0,6.0,5.0,6.0,4.0,5.0,5.0,4.0,4.0,4.0,5.0,5.0,5.0,5.0,5.0,5.0,4.0,4.0,1.0,2.0,,5.0,6.0,6.0,4.0,4.0,3.0,,3.2,4.666667,3.0,3.333333,4.333333,5.0,3.666667,5.6
8879,613,2020-04-15 11:44:42,EN,66,Female,"College degree, bachelor, master",Up to 12 years of school,Retired,United States,no,Virginia,Married/cohabiting,0.0,Yes,Life carries on with minor changes,1.0,0.0,,Program C,No,3.0,2.0,3.0,5.0,4.0,1.0,5.0,4.0,3.0,1.0,2.0,2.0,3.0,6.0,9.0,5.0,8.0,9.0,5.0,7.0,1.0,4.0,5.0,5.0,5.0,5.0,0.0,5.0,5.0,5.0,4.0,3.0,3.0,3.0,2.0,4.0,5.0,5.0,4.0,4.0,6.0,5.0,4.0,5.0,5.0,4.0,5.0,5.0,1.0,99.0,99.0,99.0,3.0,3.0,99.0,2.0,99.0,5.0,4.0,5.0,5.0,5.0,99.0,99.0,3.0,3.0,4.0,2.0,2.0,2.0,4.0,5.0,,6.0,5.0,5.0,6.0,6.0,6.0,6.0,6.0,5.0,6.0,2.0,5.0,6.0,1.0,5.0,5.0,1.0,1.0,4.0,4.0,3.0,3.0,1.0,4.0,2.0,2.0,,3.0,4.0,4.0,3.0,4.0,3.0,,1.9,2.333333,2.666667,4.333333,5.0,4.333333,3.666667,5.7
8888,1179,2020-04-16 11:33:30,EN,63,Female,"College degree, bachelor, master",Some College or equivalent,Retired,United States,no,Indiana,Married/cohabiting,0.0,Yes,Life carries on with minor changes,1.0,0.0,Program B,,No,3.0,2.0,3.0,4.0,3.0,1.0,4.0,5.0,4.0,1.0,1.0,1.0,2.0,6.0,9.0,4.0,9.0,8.0,2.0,8.0,1.0,5.0,6.0,5.0,6.0,6.0,1.0,6.0,6.0,6.0,1.0,5.0,2.0,5.0,1.0,6.0,5.0,2.0,4.0,4.0,5.0,2.0,5.0,4.0,3.0,5.0,3.0,5.0,4.0,1.0,1.0,1.0,2.0,4.0,5.0,2.0,1.0,5.0,4.0,5.0,5.0,3.0,1.0,1.0,4.0,1.0,2.0,5.0,5.0,1.0,5.0,2.0,,6.0,5.0,6.0,6.0,6.0,6.0,6.0,6.0,5.0,6.0,2.0,4.0,5.0,1.0,1.0,5.0,5.0,4.0,1.0,2.0,4.0,3.0,4.0,4.0,6.0,1.0,,3.0,3.0,3.0,3.0,3.0,4.0,I am not able to call repair people into my home to have work done.,2.2,1.333333,2.333333,3.333333,3.666667,3.0,4.666667,5.8
8892,644,2020-04-15 11:22:47,EN,54,Male,"College degree, bachelor, master",Up to 12 years of school,Full time employed,United States,no,NY,Married/cohabiting,4.0,No,Life carries on with minor changes,3.0,0.0,Program A,,No,1.0,3.0,3.0,3.0,3.0,3.0,1.0,3.0,1.0,3.0,4.0,4.0,3.0,8.0,9.0,10.0,9.0,8.0,8.0,6.0,10.0,4.0,5.0,5.0,5.0,3.0,8.0,6.0,6.0,6.0,6.0,6.0,6.0,4.0,2.0,5.0,6.0,6.0,2.0,3.0,3.0,5.0,2.0,5.0,6.0,4.0,4.0,5.0,6.0,4.0,3.0,3.0,4.0,4.0,4.0,4.0,99.0,4.0,6.0,4.0,5.0,5.0,3.0,4.0,4.0,4.0,4.0,3.0,3.0,4.0,5.0,1.0,,5.0,5.0,3.0,5.0,4.0,5.0,4.0,3.0,3.0,3.0,4.0,4.0,4.0,4.0,4.0,4.0,4.0,4.0,5.0,4.0,4.0,4.0,4.0,4.0,4.0,4.0,,4.0,2.0,3.0,5.0,4.0,3.0,,2.8,3.666667,2.666667,5.666667,3.666667,5.333333,4.0,4.0
8903,958,2020-04-15 11:15:05,EN,27,Female,"College degree, bachelor, master",College degree,Student,United States,no,Florida,Single,0.0,Yes,Life carries on with minor changes,1.0,0.0,Program A,,No,2.0,4.0,5.0,2.0,2.0,5.0,3.0,1.0,3.0,5.0,4.0,3.0,4.0,2.0,5.0,3.0,8.0,6.0,8.0,6.0,2.0,3.0,6.0,5.0,4.0,4.0,2.0,4.0,5.0,4.0,2.0,2.0,3.0,5.0,6.0,3.0,4.0,4.0,4.0,4.0,4.0,2.0,2.0,6.0,5.0,6.0,2.0,6.0,2.0,6.0,99.0,6.0,3.0,6.0,2.0,3.0,99.0,6.0,5.0,5.0,6.0,6.0,5.0,5.0,2.0,4.0,5.0,6.0,3.0,2.0,6.0,4.0,,5.0,5.0,4.0,5.0,6.0,6.0,6.0,5.0,6.0,6.0,2.0,2.0,5.0,2.0,5.0,3.0,2.0,2.0,4.0,6.0,2.0,2.0,5.0,5.0,2.0,2.0,"I wish there was more I could do to help, but only volunteer for Meals on Wheels right now",4.0,5.0,1.0,2.0,4.0,1.0,"Neighbors are in a domestically violent relationship and there are concerns for them, their child, and us.  Working from home seems impossible most of the time.",4.0,3.666667,5.0,3.666667,3.333333,5.333333,5.666667,5.4
8965,1040,2020-04-15 10:06:56,EN,51,Female,"College degree, bachelor, master",Some College or equivalent,Part time employed,United States,no,Ohio,Married/cohabiting,0.0,Yes,Isolated,1.0,0.0,,Program D,No,4.0,2.0,3.0,4.0,3.0,3.0,4.0,4.0,5.0,2.0,2.0,2.0,3.0,5.0,7.0,1.0,1.0,5.0,1.0,8.0,1.0,5.0,6.0,6.0,5.0,5.0,1.0,4.0,5.0,5.0,3.0,4.0,4.0,6.0,5.0,3.0,2.0,2.0,5.0,6.0,5.0,6.0,4.0,4.0,5.0,5.0,3.0,5.0,6.0,99.0,99.0,6.0,6.0,5.0,4.0,4.0,99.0,2.0,5.0,5.0,5.0,6.0,99.0,5.0,3.0,3.0,3.0,5.0,5.0,3.0,4.0,2.0,,6.0,6.0,5.0,6.0,6.0,6.0,6.0,6.0,5.0,6.0,1.0,4.0,5.0,1.0,2.0,5.0,1.0,1.0,2.0,4.0,3.0,3.0,3.0,6.0,4.0,1.0,,4.0,4.0,4.0,3.0,5.0,4.0,I am a healthcare provider (physical therapy assistant) and employed part time but am currently not working because non-essential healthcare services are all on hold. I feel guilty at the praise given to healthcare workers when so many of them are risking their lives and I'm just sitting at home.,2.8,2.333333,5.0,2.0,5.666667,4.0,4.666667,5.8
8972,792,2020-04-15 09:52:35,EN,61,Female,Up to 12 years of school,College degree,Retired,United States,no,Arkansas,Married/cohabiting,0.0,Yes,Life carries on with minor changes,,4.0,,Program C,No,4.0,5.0,5.0,3.0,2.0,4.0,2.0,3.0,5.0,3.0,2.0,3.0,3.0,7.0,9.0,5.0,5.0,5.0,4.0,9.0,4.0,5.0,5.0,5.0,5.0,5.0,6.0,3.0,4.0,3.0,2.0,5.0,1.0,5.0,5.0,2.0,5.0,5.0,3.0,3.0,5.0,4.0,4.0,5.0,5.0,2.0,4.0,4.0,4.0,5.0,99.0,99.0,2.0,5.0,2.0,5.0,5.0,5.0,4.0,2.0,2.0,5.0,99.0,5.0,2.0,5.0,5.0,2.0,2.0,2.0,6.0,99.0,,5.0,5.0,5.0,5.0,5.0,5.0,5.0,5.0,5.0,5.0,2.0,5.0,5.0,5.0,4.0,4.0,2.0,2.0,5.0,4.0,2.0,2.0,5.0,5.0,5.0,3.0,,2.0,2.0,2.0,2.0,2.0,5.0,,4.0,2.666667,5.0,4.666667,4.0,4.333333,3.0,5.0
8980,1114,2020-04-15 09:50:16,EN,44,Female,"Some College, short continuing education or equivalent",College degree,Full time employed,United States,no,NC,Single,0.0,Yes,Life carries on with minor changes,0.0,0.0,Program A,,No,3.0,4.0,5.0,4.0,3.0,2.0,3.0,4.0,4.0,2.0,4.0,3.0,4.0,6.0,8.0,1.0,2.0,3.0,4.0,7.0,1.0,6.0,6.0,6.0,6.0,5.0,0.0,6.0,5.0,5.0,2.0,4.0,4.0,4.0,4.0,4.0,6.0,5.0,2.0,5.0,6.0,6.0,4.0,4.0,5.0,3.0,4.0,5.0,1.0,2.0,99.0,2.0,1.0,5.0,1.0,99.0,99.0,5.0,4.0,6.0,6.0,6.0,2.0,4.0,2.0,6.0,2.0,2.0,2.0,2.0,6.0,4.0,,6.0,6.0,6.0,5.0,6.0,5.0,6.0,6.0,6.0,6.0,1.0,1.0,5.0,1.0,4.0,5.0,2.0,2.0,4.0,5.0,4.0,3.0,4.0,4.0,1.0,1.0,note: face to face is assumed as in person rather than personal video conferencing,2.0,5.0,5.0,3.0,3.0,3.0,,3.0,3.666667,3.666667,5.333333,5.666667,4.0,3.666667,5.8
8982,870,2020-04-15 09:42:30,EN,66,Female,"College degree, bachelor, master",Some College or equivalent,Retired,United States,no,Alaska,Single,0.0,Yes,Life carries on with minor changes,0.0,0.0,,Program C,No,2.0,3.0,3.0,5.0,3.0,2.0,5.0,3.0,2.0,3.0,2.0,2.0,2.0,2.0,6.0,3.0,3.0,5.0,5.0,7.0,2.0,6.0,5.0,5.0,5.0,5.0,1.0,5.0,5.0,4.0,1.0,3.0,2.0,5.0,5.0,4.0,4.0,1.0,5.0,5.0,6.0,5.0,2.0,4.0,5.0,3.0,6.0,4.0,99.0,99.0,99.0,99.0,3.0,2.0,99.0,99.0,99.0,4.0,2.0,6.0,5.0,4.0,99.0,2.0,1.0,2.0,2.0,2.0,2.0,2.0,99.0,99.0,,5.0,5.0,5.0,5.0,5.0,5.0,5.0,5.0,5.0,5.0,3.0,4.0,4.0,4.0,3.0,4.0,4.0,4.0,5.0,5.0,3.0,4.0,4.0,5.0,2.0,3.0,,4.0,5.0,,4.0,5.0,,,2.3,2.0,4.333333,2.333333,5.333333,4.666667,2.666667,5.0
8985,1207,2020-04-15 09:42:16,EN,53,Female,"College degree, bachelor, master",Some College or equivalent,Full time employed,United States,no,Tx,Other or would rather not say,2.0,Yes,Life carries on with minor changes,0.0,2.0,Program B,,Not sure,3.0,3.0,5.0,4.0,3.0,4.0,1.0,3.0,4.0,1.0,1.0,1.0,1.0,5.0,8.0,4.0,5.0,5.0,5.0,5.0,3.0,4.0,5.0,5.0,5.0,5.0,2.0,6.0,3.0,4.0,1.0,1.0,4.0,4.0,3.0,3.0,4.0,3.0,4.0,5.0,5.0,3.0,5.0,3.0,4.0,3.0,1.0,3.0,6.0,4.0,1.0,6.0,1.0,2.0,6.0,6.0,99.0,6.0,1.0,2.0,1.0,4.0,1.0,1.0,99.0,99.0,2.0,1.0,4.0,2.0,5.0,99.0,,5.0,4.0,4.0,4.0,5.0,5.0,5.0,5.0,4.0,5.0,5.0,4.0,5.0,4.0,1.0,1.0,1.0,1.0,1.0,2.0,5.0,3.0,6.0,4.0,1.0,6.0,,3.0,3.0,3.0,2.0,1.0,4.0,,3.3,1.0,3.666667,3.333333,4.333333,3.0,4.0,4.6
8992,1138,2020-04-16 09:38:51,EN,68,Female,"Some College, short continuing education or equivalent",Up to 12 years of school,Retired,United States,no,ILLINOIS,Married/cohabiting,2.0,Yes,Isolated,1.0,0.0,Program A,,No,1.0,1.0,1.0,5.0,5.0,1.0,5.0,5.0,1.0,1.0,1.0,1.0,1.0,9.0,9.0,10.0,10.0,10.0,10.0,5.0,10.0,4.0,4.0,4.0,4.0,4.0,7.0,5.0,6.0,5.0,2.0,5.0,3.0,3.0,1.0,5.0,5.0,5.0,2.0,5.0,4.0,2.0,2.0,5.0,5.0,5.0,2.0,5.0,2.0,2.0,99.0,99.0,3.0,3.0,2.0,2.0,99.0,2.0,2.0,3.0,2.0,3.0,2.0,2.0,2.0,2.0,2.0,3.0,2.0,1.0,2.0,2.0,,5.0,5.0,5.0,5.0,5.0,5.0,5.0,5.0,5.0,5.0,5.0,3.0,5.0,3.0,5.0,5.0,2.0,2.0,5.0,5.0,5.0,5.0,5.0,5.0,5.0,5.0,,2.0,3.0,3.0,2.0,2.0,4.0,,1.0,1.0,2.0,5.0,3.666667,5.0,5.0,5.0
9000,921,2020-04-15 09:22:26,EN,59,Female,"Some College, short continuing education or equivalent",College degree,Full time employed,United States,no,North Carolina,Married/cohabiting,0.0,Yes,Life carries on with minor changes,1.0,0.0,,Program D,No,1.0,1.0,3.0,5.0,5.0,1.0,5.0,4.0,2.0,1.0,1.0,1.0,2.0,7.0,9.0,,,8.0,6.0,10.0,,5.0,5.0,5.0,5.0,5.0,0.0,5.0,5.0,5.0,5.0,2.0,2.0,3.0,2.0,5.0,5.0,5.0,3.0,4.0,6.0,5.0,2.0,4.0,5.0,5.0,2.0,5.0,2.0,1.0,6.0,1.0,5.0,2.0,1.0,1.0,99.0,6.0,4.0,5.0,5.0,5.0,99.0,2.0,1.0,1.0,4.0,4.0,4.0,3.0,5.0,99.0,,6.0,6.0,6.0,6.0,6.0,6.0,3.0,6.0,5.0,6.0,,5.0,5.0,5.0,3.0,4.0,1.0,1.0,5.0,5.0,5.0,5.0,5.0,2.0,1.0,4.0,,1.0,5.0,5.0,4.0,5.0,3.0,,1.4,1.333333,2.333333,4.666667,5.0,4.666667,5.0,5.6
9082,27906,2020-04-16 15:06:32,EN,35,Female,PhD/Doctorate,College degree,Full time employed,United States,no,Maryland,Married/cohabiting,0.0,Yes,Isolated,1.0,0.0,,Program D,No,3.0,2.0,4.0,5.0,4.0,3.0,4.0,4.0,4.0,2.0,2.0,3.0,3.0,5.0,8.0,4.0,2.0,5.0,4.0,6.0,1.0,4.0,6.0,5.0,6.0,6.0,1.0,5.0,6.0,6.0,4.0,4.0,6.0,4.0,3.0,4.0,5.0,3.0,5.0,5.0,5.0,5.0,3.0,4.0,5.0,5.0,4.0,5.0,1.0,2.0,99.0,99.0,2.0,3.0,1.0,1.0,99.0,6.0,6.0,5.0,4.0,5.0,3.0,4.0,1.0,3.0,5.0,3.0,2.0,2.0,5.0,2.0,,5.0,6.0,6.0,6.0,6.0,5.0,6.0,6.0,5.0,5.0,4.0,2.0,6.0,1.0,6.0,5.0,3.0,3.0,5.0,4.0,4.0,4.0,4.0,5.0,1.0,5.0,,4.0,5.0,4.0,3.0,4.0,3.0,,2.5,2.666667,3.333333,3.333333,5.0,4.333333,4.333333,5.6
9149,1232,2020-04-15 06:23:19,EN,74,Female,Up to 12 years of school,Up to 6 years of school,Retired,United States,no,Florida,Married/cohabiting,1.0,Yes,Life carries on with minor changes,1.0,0.0,,Program D,No,4.0,2.0,3.0,5.0,3.0,2.0,4.0,4.0,3.0,2.0,1.0,2.0,3.0,7.0,8.0,4.0,8.0,8.0,8.0,8.0,0.0,5.0,5.0,5.0,6.0,6.0,0.0,5.0,5.0,5.0,2.0,4.0,4.0,3.0,3.0,4.0,4.0,3.0,4.0,4.0,4.0,3.0,4.0,3.0,4.0,4.0,4.0,4.0,99.0,99.0,5.0,2.0,3.0,4.0,2.0,3.0,99.0,5.0,5.0,4.0,5.0,5.0,3.0,3.0,2.0,3.0,4.0,3.0,4.0,2.0,5.0,99.0,,5.0,5.0,4.0,5.0,5.0,4.0,5.0,5.0,4.0,5.0,2.0,4.0,5.0,6.0,6.0,4.0,2.0,2.0,4.0,4.0,3.0,5.0,6.0,4.0,4.0,4.0,,2.0,4.0,3.0,4.0,4.0,5.0,,2.4,2.0,3.0,3.333333,3.666667,3.333333,3.666667,4.7
9591,184,2020-04-15 21:29:39,EN,52,Female,"Some College, short continuing education or equivalent",Up to 12 years of school,Part time employed,United States,no,Colorado,Married/cohabiting,0.0,No,Life carries on with minor changes,1.0,0.0,,,,,,,,,,,,,,,,,,,,,,,,,,,,,,,,,,,,,,,,,,,,,,,,,,,,,,,,,,,,,,,,,,,,,,,,,,,,,,,,,,,,,,,,,,,,,,,,,,,,,,,,,,,,,,,,,,,,,,
9594,713,2020-04-15 21:33:11,EN,38,Female,"College degree, bachelor, master",Some College or equivalent,Part time employed,United States,no,IL,Married/cohabiting,2.0,Yes,Isolated,1.0,2.0,,Program D,No,2.0,2.0,3.0,5.0,5.0,2.0,5.0,5.0,2.0,2.0,2.0,1.0,3.0,7.0,9.0,7.0,8.0,6.0,5.0,6.0,6.0,2.0,2.0,2.0,4.0,5.0,4.0,5.0,5.0,5.0,2.0,5.0,4.0,,,,,,,,,,,,,,,,,,,,,,,,,,,,,,,,,,,,,,,,,,,,,,,,,,,,,,,,,,,,,,,,,,,,,,,,,,,1.7,2.0,,,,,,
9620,1296,2020-04-14 20:57:38,EN,22,Female,"College degree, bachelor, master",Some College or equivalent,Student,United States,no,Texas,Single,0.0,Yes,Life carries on with minor changes,1.0,0.0,,Program D,Yes,3.0,2.0,2.0,5.0,4.0,3.0,4.0,3.0,3.0,2.0,2.0,2.0,1.0,5.0,6.0,10.0,10.0,9.0,8.0,1.0,10.0,5.0,4.0,3.0,3.0,3.0,7.0,4.0,4.0,3.0,2.0,1.0,3.0,4.0,5.0,6.0,3.0,2.0,4.0,5.0,4.0,6.0,2.0,4.0,5.0,4.0,3.0,5.0,99.0,2.0,99.0,4.0,4.0,1.0,3.0,2.0,99.0,3.0,4.0,3.0,3.0,3.0,2.0,2.0,1.0,2.0,4.0,1.0,2.0,2.0,3.0,6.0,,4.0,4.0,3.0,3.0,5.0,4.0,3.0,5.0,3.0,2.0,3.0,2.0,1.0,1.0,1.0,3.0,1.0,1.0,5.0,3.0,2.0,3.0,4.0,2.0,6.0,4.0,,4.0,4.0,2.0,2.0,5.0,2.0,,2.3,1.666667,3.333333,2.666667,5.0,4.666667,4.333333,3.6
9621,2427,2020-04-14 21:15:41,S-CO,50,Female,"Some College, short continuing education or equivalent",Up to 6 years of school,Part time employed,United States,yes,,Divorced/widowed,1.0,Yes,Life carries on with minor changes,1.0,0.0,,Program D,No,4.0,1.0,5.0,4.0,4.0,4.0,4.0,4.0,3.0,3.0,2.0,1.0,2.0,3.0,7.0,0.0,2.0,1.0,0.0,2.0,4.0,6.0,6.0,6.0,5.0,5.0,4.0,6.0,5.0,5.0,1.0,4.0,4.0,5.0,3.0,4.0,5.0,3.0,5.0,4.0,5.0,5.0,2.0,4.0,5.0,6.0,2.0,5.0,5.0,4.0,6.0,6.0,6.0,3.0,4.0,3.0,1.0,5.0,6.0,6.0,6.0,6.0,4.0,4.0,1.0,3.0,2.0,4.0,5.0,5.0,6.0,4.0,,3.0,4.0,2.0,3.0,5.0,4.0,3.0,6.0,5.0,2.0,5.0,5.0,5.0,3.0,4.0,3.0,2.0,5.0,5.0,4.0,5.0,5.0,5.0,5.0,6.0,5.0,,3.0,4.0,4.0,5.0,5.0,4.0,,2.8,1.666667,3.666667,3.333333,4.666667,4.666667,5.333333,3.7
9649,328,2020-04-15 19:22:00,EN,24,Female,"College degree, bachelor, master",Up to 12 years of school,Full time employed,United States,no,IL,Single,0.0,No,Life carries on with minor changes,3.0,0.0,Program A,,No,3.0,5.0,5.0,3.0,3.0,4.0,2.0,1.0,5.0,4.0,5.0,3.0,5.0,,,,,,,,,,,,,,,,,,,,,,,,,,,,,,,,,,,,,,,,,,,,,,,,,,,,,,,,,,,,,,,,,,,,,,,,,,,,,,,,,,,,,,,,,,,,,,,4.1,4.333333,,,,,,
9656,270,2020-04-15 18:49:09,EN,46,Male,Up to 12 years of school,Some College or equivalent,Not employed,United States,no,vermont,Married/cohabiting,1.0,Yes,Isolated,1.0,1.0,Program B,,No,4.0,4.0,4.0,3.0,2.0,3.0,4.0,2.0,4.0,5.0,5.0,5.0,5.0,4.0,8.0,3.0,0.0,2.0,3.0,10.0,0.0,6.0,6.0,6.0,6.0,6.0,0.0,6.0,6.0,6.0,1.0,3.0,2.0,,,,,,,,,,,,,,,,,,,,,,,,,,,,,,,,,,,,,,,,,,,,,,,,,,,,,,,,,,,,,,,,,,,,,,,,,,,3.7,5.0,,,,,,
9668,493,2020-04-15 18:26:54,EN,22,Female,"College degree, bachelor, master",Some College or equivalent,Full time employed,United States,no,North Carolina,Single,0.0,Yes,Isolated,2.0,0.0,,Program C,Yes,5.0,3.0,5.0,3.0,2.0,4.0,3.0,2.0,2.0,3.0,4.0,4.0,4.0,7.0,3.0,0.0,2.0,4.0,0.0,9.0,0.0,4.0,5.0,4.0,5.0,6.0,0.0,5.0,5.0,5.0,1.0,1.0,4.0,4.0,3.0,5.0,5.0,4.0,5.0,4.0,5.0,5.0,2.0,5.0,6.0,5.0,5.0,5.0,5.0,6.0,99.0,2.0,4.0,3.0,1.0,4.0,99.0,4.0,5.0,5.0,5.0,6.0,4.0,5.0,1.0,5.0,3.0,5.0,5.0,2.0,4.0,1.0,No,5.0,5.0,5.0,5.0,5.0,5.0,5.0,5.0,5.0,5.0,1.0,5.0,5.0,1.0,5.0,1.0,6.0,5.0,6.0,6.0,4.0,4.0,4.0,5.0,1.0,6.0,No,3.0,5.0,5.0,5.0,5.0,2.0,,3.6,4.0,3.0,3.666667,4.666667,5.333333,4.0,5.0
9721,3084,2020-04-14 17:27:01,EN,46,Female,"Some College, short continuing education or equivalent",Some College or equivalent,Not employed,United States,yes,Texas,Married/cohabiting,2.0,Yes,Life carries on with minor changes,1.0,1.0,Program A,,No,3.0,3.0,3.0,4.0,2.0,3.0,5.0,4.0,3.0,2.0,3.0,1.0,3.0,6.0,8.0,8.0,9.0,9.0,4.0,4.0,10.0,6.0,6.0,6.0,6.0,6.0,10.0,5.0,5.0,5.0,3.0,5.0,4.0,5.0,6.0,5.0,5.0,5.0,2.0,2.0,6.0,5.0,1.0,3.0,6.0,5.0,2.0,6.0,99.0,99.0,6.0,99.0,2.0,4.0,5.0,99.0,3.0,1.0,,2.0,5.0,6.0,99.0,2.0,99.0,1.0,1.0,3.0,1.0,2.0,6.0,6.0,,6.0,4.0,6.0,6.0,6.0,5.0,6.0,6.0,4.0,5.0,5.0,1.0,6.0,1.0,5.0,6.0,1.0,1.0,1.0,6.0,1.0,5.0,5.0,6.0,6.0,6.0,,6.0,1.0,1.0,6.0,6.0,6.0,,2.6,2.333333,4.333333,5.0,4.333333,5.0,5.333333,5.4
9757,3487,2020-04-14 16:35:42,FI,64,Female,"Some College, short continuing education or equivalent",Up to 12 years of school,Self-employed,United States,yes,Florida,Married/cohabiting,0.0,Yes,Isolated,1.0,0.0,,Program D,No,1.0,1.0,2.0,5.0,4.0,2.0,5.0,5.0,1.0,1.0,1.0,1.0,2.0,4.0,7.0,3.0,7.0,3.0,2.0,9.0,1.0,2.0,4.0,3.0,6.0,6.0,2.0,6.0,6.0,6.0,1.0,4.0,5.0,1.0,2.0,5.0,3.0,5.0,4.0,5.0,6.0,5.0,1.0,4.0,3.0,6.0,4.0,5.0,1.0,2.0,1.0,1.0,1.0,2.0,99.0,1.0,99.0,2.0,3.0,5.0,5.0,3.0,2.0,2.0,1.0,1.0,1.0,1.0,4.0,1.0,2.0,2.0,Että toinen pandemic aalto tapahtuu koska paikat avataan liian aikaisin,6.0,6.0,5.0,5.0,5.0,6.0,5.0,5.0,6.0,6.0,4.0,6.0,5.0,5.0,5.0,4.0,1.0,1.0,6.0,4.0,5.0,4.0,5.0,6.0,2.0,3.0,Seuraan globaalia  Covid-19 tilannetta,4.0,5.0,6.0,2.0,5.0,4.0,I have grown very pessimistic about the future of the planet.,1.3,1.333333,1.666667,3.666667,5.333333,4.333333,4.666667,5.5
9782,705,2020-04-14 15:26:15,EN,33,Male,PhD/Doctorate,Some College or equivalent,Not employed,United States,no,Oklahoma,Married/cohabiting,0.0,No,Life carries on with minor changes,1.0,0.0,Program A,,No,2.0,4.0,2.0,4.0,4.0,1.0,5.0,4.0,1.0,1.0,1.0,1.0,3.0,2.0,5.0,2.0,2.0,5.0,3.0,8.0,1.0,4.0,4.0,3.0,5.0,5.0,2.0,6.0,5.0,3.0,1.0,1.0,3.0,5.0,2.0,6.0,1.0,3.0,5.0,5.0,3.0,6.0,6.0,1.0,6.0,6.0,4.0,5.0,6.0,2.0,99.0,6.0,5.0,1.0,1.0,1.0,99.0,6.0,6.0,5.0,5.0,5.0,2.0,2.0,2.0,1.0,1.0,3.0,4.0,1.0,5.0,5.0,,5.0,6.0,4.0,6.0,5.0,3.0,6.0,6.0,4.0,4.0,2.0,1.0,5.0,1.0,6.0,3.0,6.0,6.0,4.0,4.0,1.0,4.0,5.0,6.0,6.0,3.0,,1.0,2.0,4.0,6.0,5.0,2.0,"I have always worked from home, but now my wife is too. Our office can only be comfortably occupied by 1 person, so I now wake up between 2am and 4am to get my work done, so she can start work by 8am. This has been the only major disruption to our work life.",1.8,1.666667,2.666667,2.0,4.666667,2.666667,4.666667,4.9
9787,776,2020-04-14 15:22:01,EN,67,Female,"College degree, bachelor, master",Up to 9 years of school,Retired,United States,no,Michigan,Single,0.0,Yes,Isolated,0.0,0.0,Program A,,Yes,3.0,4.0,3.0,4.0,4.0,1.0,4.0,4.0,3.0,1.0,2.0,1.0,2.0,4.0,9.0,5.0,9.0,7.0,9.0,7.0,2.0,6.0,5.0,5.0,5.0,5.0,2.0,6.0,6.0,6.0,2.0,4.0,4.0,3.0,2.0,3.0,5.0,5.0,2.0,4.0,5.0,5.0,4.0,5.0,4.0,4.0,5.0,5.0,2.0,99.0,99.0,99.0,5.0,5.0,1.0,99.0,99.0,5.0,4.0,5.0,6.0,4.0,99.0,4.0,2.0,2.0,5.0,1.0,3.0,2.0,5.0,1.0,,5.0,5.0,5.0,5.0,5.0,5.0,5.0,5.0,5.0,5.0,5.0,1.0,5.0,1.0,6.0,4.0,5.0,5.0,5.0,4.0,4.0,4.0,6.0,4.0,4.0,5.0,,5.0,5.0,4.0,4.0,2.0,5.0,,2.3,1.666667,3.0,5.0,4.666667,4.0,3.666667,5.0
9914,811,2020-04-14 13:43:45,EN,21,Female,"College degree, bachelor, master",College degree,Student,United States,no,Texas,Single,0.0,Yes,Isolated,1.0,0.0,Program B,,No,1.0,2.0,5.0,4.0,1.0,3.0,3.0,2.0,5.0,3.0,4.0,1.0,5.0,5.0,9.0,7.0,4.0,9.0,9.0,9.0,7.0,5.0,6.0,6.0,5.0,4.0,4.0,5.0,6.0,5.0,2.0,4.0,5.0,6.0,6.0,2.0,2.0,2.0,6.0,4.0,6.0,6.0,4.0,5.0,6.0,6.0,2.0,6.0,6.0,6.0,99.0,6.0,6.0,5.0,4.0,6.0,99.0,6.0,2.0,6.0,6.0,6.0,99.0,6.0,99.0,6.0,6.0,6.0,4.0,2.0,6.0,2.0,,6.0,6.0,6.0,6.0,6.0,6.0,6.0,6.0,5.0,6.0,4.0,1.0,6.0,1.0,6.0,1.0,1.0,1.0,5.0,1.0,4.0,5.0,5.0,5.0,4.0,5.0,,5.0,5.0,3.0,5.0,2.0,2.0,,3.3,3.333333,5.666667,1.666667,5.333333,4.666667,5.666667,5.9
9923,2396,2020-04-14 14:06:20,EN,65,Female,"College degree, bachelor, master",College degree,Retired,United States,no,Maine,Divorced/widowed,0.0,Yes,Isolated,0.0,0.0,,Program D,No,4.0,4.0,4.0,3.0,3.0,4.0,3.0,2.0,3.0,3.0,4.0,3.0,4.0,7.0,9.0,6.0,7.0,7.0,6.0,7.0,3.0,6.0,6.0,6.0,5.0,5.0,2.0,4.0,5.0,6.0,1.0,1.0,3.0,5.0,2.0,4.0,4.0,2.0,5.0,4.0,5.0,4.0,3.0,5.0,5.0,5.0,1.0,5.0,5.0,3.0,99.0,4.0,5.0,3.0,2.0,99.0,99.0,4.0,5.0,6.0,6.0,6.0,99.0,3.0,2.0,4.0,4.0,99.0,5.0,4.0,4.0,1.0,,4.0,4.0,5.0,4.0,4.0,4.0,5.0,5.0,4.0,4.0,3.0,2.0,6.0,2.0,6.0,4.0,1.0,1.0,4.0,4.0,4.0,5.0,3.0,4.0,4.0,2.0,,5.0,2.0,5.0,4.0,3.0,3.0,,3.5,3.666667,3.333333,2.666667,4.333333,4.666667,5.333333,4.3
9928,2045,2020-04-14 13:57:13,EN,81,Male,PhD/Doctorate,Up to 12 years of school,Retired,United States,no,MD,Married/cohabiting,0.0,Yes,Isolated,1.0,0.0,Program B,,No,2.0,3.0,2.0,5.0,3.0,1.0,4.0,4.0,5.0,1.0,1.0,2.0,2.0,7.0,8.0,3.0,8.0,9.0,3.0,7.0,0.0,5.0,6.0,5.0,5.0,5.0,0.0,5.0,5.0,5.0,1.0,4.0,2.0,5.0,2.0,5.0,2.0,2.0,5.0,5.0,5.0,4.0,5.0,5.0,5.0,5.0,2.0,5.0,1.0,1.0,99.0,1.0,4.0,2.0,2.0,1.0,99.0,5.0,5.0,3.0,5.0,6.0,1.0,5.0,2.0,2.0,4.0,2.0,3.0,2.0,3.0,4.0,,6.0,5.0,6.0,6.0,6.0,4.0,6.0,6.0,4.0,6.0,3.0,6.0,6.0,1.0,5.0,2.0,1.0,1.0,5.0,5.0,4.0,4.0,4.0,4.0,5.0,4.0,,4.0,4.0,4.0,4.0,2.0,4.0,,2.2,1.666667,3.0,2.0,4.666667,4.0,5.0,5.5
9948,857,2020-04-14 13:31:29,EN,80,Female,"College degree, bachelor, master",Up to 12 years of school,Retired,United States,no,Maryland,Married/cohabiting,0.0,Yes,Life carries on with minor changes,1.0,0.0,,Program C,No,3.0,2.0,3.0,4.0,3.0,3.0,2.0,2.0,4.0,3.0,2.0,2.0,3.0,7.0,9.0,3.0,7.0,8.0,4.0,6.0,1.0,5.0,5.0,5.0,6.0,6.0,0.0,6.0,6.0,6.0,2.0,5.0,2.0,5.0,4.0,6.0,5.0,6.0,2.0,6.0,6.0,5.0,5.0,4.0,5.0,5.0,4.0,5.0,99.0,2.0,99.0,99.0,2.0,4.0,2.0,2.0,99.0,5.0,2.0,5.0,5.0,5.0,99.0,4.0,99.0,1.0,4.0,2.0,5.0,1.0,3.0,4.0,,6.0,6.0,6.0,6.0,6.0,6.0,6.0,6.0,6.0,6.0,2.0,6.0,5.0,4.0,4.0,6.0,4.0,3.0,4.0,5.0,3.0,5.0,4.0,4.0,6.0,5.0,,6.0,4.0,4.0,6.0,4.0,5.0,,3.1,2.333333,3.333333,5.333333,5.666667,3.666667,4.333333,6.0
9967,1021,2020-04-14 13:26:07,EN,35,Male,"College degree, bachelor, master",College degree,Student,United States,yes,California,Married/cohabiting,2.0,No,Isolated,1.0,2.0,Program A,,Yes,3.0,4.0,4.0,3.0,2.0,5.0,2.0,2.0,4.0,4.0,2.0,4.0,3.0,8.0,9.0,5.0,4.0,6.0,6.0,8.0,6.0,2.0,3.0,2.0,4.0,5.0,5.0,5.0,2.0,3.0,4.0,5.0,4.0,4.0,3.0,3.0,4.0,3.0,4.0,5.0,3.0,4.0,2.0,5.0,6.0,3.0,5.0,4.0,2.0,6.0,5.0,6.0,4.0,4.0,2.0,4.0,5.0,5.0,2.0,2.0,1.0,3.0,5.0,5.0,3.0,4.0,4.0,4.0,3.0,2.0,6.0,5.0,,6.0,5.0,5.0,4.0,6.0,4.0,6.0,6.0,3.0,6.0,2.0,3.0,4.0,2.0,2.0,4.0,3.0,1.0,5.0,4.0,2.0,4.0,2.0,1.0,1.0,4.0,,1.0,2.0,5.0,2.0,4.0,5.0,,3.9,3.0,3.666667,3.333333,4.0,5.333333,3.0,5.1
9978,2234,2020-04-14 13:38:19,EN,52,Male,"College degree, bachelor, master",College degree,Not employed,United States,yes,Alabama,Divorced/widowed,0.0,Yes,Life carries on with minor changes,1.0,0.0,,Program D,No,3.0,2.0,2.0,4.0,3.0,3.0,4.0,4.0,2.0,2.0,1.0,1.0,2.0,8.0,7.0,0.0,7.0,6.0,5.0,3.0,7.0,6.0,6.0,5.0,5.0,4.0,4.0,6.0,6.0,6.0,1.0,5.0,3.0,5.0,2.0,5.0,6.0,5.0,1.0,5.0,6.0,5.0,1.0,4.0,6.0,6.0,2.0,5.0,2.0,1.0,99.0,1.0,4.0,1.0,1.0,1.0,99.0,6.0,4.0,6.0,6.0,5.0,1.0,1.0,1.0,1.0,2.0,2.0,1.0,5.0,6.0,1.0,No,6.0,5.0,5.0,5.0,5.0,5.0,6.0,6.0,5.0,5.0,3.0,3.0,6.0,5.0,5.0,4.0,5.0,5.0,6.0,5.0,5.0,5.0,4.0,6.0,5.0,5.0,Taking care of my health thats compromised,5.0,5.0,5.0,5.0,6.0,2.0,"Not having the security items like desinfectants, face mask, alcohol, gloves, toilet paper, etc. because everything was gone in minutes, it stresses me out!",2.3,1.333333,3.0,5.666667,5.333333,5.333333,5.333333,5.3
10030,1491,2020-04-15 13:05:02,EN,44,Female,PhD/Doctorate,College degree,Full time employed,United States,no,California,Married/cohabiting,2.0,Yes,Isolated,1.0,1.0,,,,3.0,3.0,5.0,3.0,3.0,5.0,3.0,2.0,5.0,5.0,3.0,1.0,3.0,7.0,9.0,6.0,9.0,8.0,9.0,10.0,2.0,6.0,6.0,6.0,6.0,6.0,0.0,5.0,6.0,6.0,1.0,5.0,2.0,5.0,4.0,5.0,4.0,3.0,3.0,6.0,5.0,4.0,2.0,6.0,5.0,5.0,2.0,5.0,2.0,6.0,6.0,2.0,4.0,5.0,1.0,1.0,6.0,6.0,2.0,6.0,5.0,5.0,2.0,4.0,1.0,5.0,5.0,5.0,5.0,2.0,5.0,2.0,,6.0,2.0,4.0,5.0,5.0,6.0,6.0,5.0,6.0,5.0,5.0,4.0,5.0,5.0,5.0,1.0,1.0,1.0,5.0,4.0,1.0,4.0,5.0,5.0,1.0,5.0,,5.0,5.0,2.0,2.0,1.0,2.0,"The stress of trying to work full time remotely while also managing childcare and remote schooling of my children (ages 11 and 13) is extremely challenging. This is a burden that is falling more on women than men, even when both partners in the marriage are working full time remotely. This burden is significant and unmeasured here. Some school systems are requiring essentially the same volume of work be completed and graded (which will go on record for the children) remotely. I am concerned that your questions do not ask about children in the home requiring attention. How many children under 12 does not capture information about children 13 to 18 who also require considerable attention. They are also much more aware of what is happening and many are experiencing distress that parents need to attend to.   It is also important to consider the quality of the relationships that are in the home where people are isolated. These are the primary relationships that are being leveraged. Sometimes this will improve connections and relationships may be enhanced, but other times this could cause more strain.   The stress of isolation will also cause significant anxiety and depression. Consider asking about this.",3.9,2.333333,3.666667,3.666667,5.0,5.333333,5.0,5.0
10079,2278,2020-04-14 12:58:10,EN,74,Female,"Some College, short continuing education or equivalent",Some College or equivalent,Retired,United States,no,FL,Married/cohabiting,0.0,Yes,Life carries on with minor changes,1.0,0.0,Program B,,No,2.0,1.0,2.0,1.0,5.0,1.0,5.0,5.0,1.0,1.0,1.0,1.0,1.0,7.0,10.0,4.0,8.0,9.0,7.0,9.0,7.0,6.0,6.0,6.0,6.0,6.0,3.0,6.0,5.0,6.0,1.0,5.0,6.0,6.0,4.0,4.0,4.0,3.0,4.0,3.0,5.0,2.0,1.0,6.0,6.0,6.0,6.0,5.0,99.0,99.0,99.0,99.0,5.0,1.0,1.0,1.0,99.0,5.0,1.0,6.0,6.0,5.0,99.0,2.0,2.0,1.0,2.0,1.0,1.0,1.0,5.0,5.0,,6.0,5.0,6.0,6.0,6.0,6.0,5.0,6.0,4.0,6.0,4.0,5.0,6.0,1.0,1.0,6.0,6.0,4.0,4.0,5.0,5.0,4.0,5.0,5.0,4.0,5.0,,5.0,5.0,5.0,2.0,3.0,5.0,"The President of the USA is about to have a showdown with state governors!  It will be a power struggle, but I feel more confident listening to the medical professionals, and then the governors!",1.6,1.0,4.333333,3.333333,3.333333,6.0,4.0,5.6
10101,623,2020-04-14 12:21:36,EN,38,Female,"College degree, bachelor, master",College degree,Student,United States,no,Kentucky,Married/cohabiting,0.0,Yes,Isolated,1.0,0.0,Program A,,No,1.0,2.0,3.0,4.0,3.0,3.0,4.0,4.0,1.0,1.0,1.0,1.0,3.0,4.0,6.0,1.0,7.0,5.0,5.0,7.0,3.0,5.0,6.0,5.0,5.0,5.0,2.0,5.0,5.0,6.0,2.0,2.0,4.0,5.0,4.0,5.0,2.0,1.0,6.0,4.0,6.0,4.0,2.0,5.0,5.0,5.0,2.0,5.0,2.0,5.0,99.0,4.0,4.0,2.0,1.0,4.0,99.0,4.0,2.0,5.0,5.0,5.0,6.0,2.0,2.0,2.0,4.0,2.0,3.0,3.0,4.0,3.0,,6.0,6.0,5.0,6.0,6.0,5.0,6.0,6.0,6.0,6.0,5.0,2.0,6.0,2.0,5.0,3.0,1.0,1.0,6.0,5.0,4.0,2.0,2.0,6.0,1.0,4.0,,2.0,5.0,4.0,1.0,1.0,5.0,,2.0,1.666667,3.666667,1.333333,4.666667,5.0,5.0,5.8
10145,5699,2020-04-14 13:24:17,EN,33,Female,PhD/Doctorate,College degree,Full time employed,United States,no,CA,Single,0.0,Yes,Isolated,1.0,0.0,,Program C,Not sure,5.0,5.0,5.0,3.0,2.0,5.0,1.0,2.0,5.0,5.0,1.0,3.0,2.0,0.0,3.0,,,,,,,6.0,6.0,6.0,6.0,6.0,0.0,6.0,6.0,6.0,1.0,2.0,3.0,6.0,6.0,2.0,4.0,3.0,5.0,6.0,5.0,6.0,6.0,5.0,5.0,6.0,1.0,6.0,3.0,1.0,99.0,5.0,6.0,1.0,99.0,6.0,99.0,4.0,6.0,6.0,6.0,6.0,1.0,1.0,2.0,1.0,6.0,99.0,4.0,3.0,4.0,1.0,National and global food supply shortages,5.0,3.0,5.0,5.0,5.0,5.0,5.0,6.0,4.0,3.0,3.0,1.0,6.0,1.0,6.0,6.0,1.0,1.0,3.0,2.0,5.0,4.0,4.0,1.0,1.0,4.0,Information from trusted scientific sources,3.0,6.0,6.0,3.0,3.0,3.0,"I currently have no food and no ability to acquire it. Meanwhile, farms are destroying surplus produce, milk, etc. because they have no way of getting these things to people. Seeing such food waste while people are starving to death is deeply bothersome.",4.6,2.0,5.666667,3.0,5.666667,3.666667,6.0,4.6
10150,158,2020-04-15 11:50:00,EN,27,Female,"College degree, bachelor, master",Up to 12 years of school,Full time employed,United States,no,South Carolina,Divorced/widowed,0.0,Yes,Isolated,1.0,0.0,,Program C,,,,,,,,,,,,,,,,,,,,,,,,,,,,,,,,,,,,,,,,,,,,,,,,,,,,,,,,,,,,,,,,,,,,,,,,,,,,,,,,,,,,,,,,,,,,,,,,,,,,,,,,,,,,,,,,,,,,
10179,711,2020-04-14 11:46:29,EN,46,Female,PhD/Doctorate,College degree,Full time employed,United States,no,California,Married/cohabiting,0.0,No,Isolated,1.0,0.0,Program A,,No,3.0,2.0,5.0,5.0,3.0,3.0,3.0,3.0,2.0,3.0,3.0,2.0,4.0,7.0,9.0,5.0,4.0,9.0,7.0,9.0,3.0,4.0,4.0,4.0,5.0,6.0,3.0,5.0,3.0,4.0,2.0,1.0,4.0,4.0,4.0,5.0,4.0,4.0,3.0,6.0,6.0,5.0,3.0,6.0,6.0,4.0,1.0,6.0,1.0,5.0,99.0,1.0,3.0,5.0,1.0,1.0,99.0,5.0,3.0,4.0,3.0,5.0,5.0,3.0,1.0,4.0,3.0,4.0,5.0,2.0,5.0,1.0,,6.0,6.0,5.0,5.0,6.0,6.0,6.0,6.0,6.0,6.0,2.0,5.0,5.0,1.0,3.0,2.0,1.0,1.0,6.0,6.0,4.0,4.0,4.0,5.0,1.0,2.0,,5.0,6.0,2.0,2.0,2.0,4.0,,2.8,3.0,3.333333,4.0,5.666667,5.333333,5.333333,5.8
10207,754,2020-04-14 11:37:00,EN,20,Female,"Some College, short continuing education or equivalent",Up to 12 years of school,Self-employed,United States,no,Illinois,Single,0.0,Yes,Life carries on with minor changes,4.0,0.0,Program A,,Not sure,4.0,2.0,4.0,3.0,3.0,2.0,3.0,3.0,4.0,3.0,2.0,2.0,4.0,5.0,9.0,7.0,9.0,9.0,10.0,8.0,8.0,6.0,6.0,6.0,6.0,5.0,5.0,5.0,5.0,5.0,3.0,3.0,4.0,5.0,3.0,3.0,4.0,5.0,4.0,4.0,3.0,3.0,3.0,3.0,5.0,5.0,4.0,5.0,3.0,5.0,99.0,99.0,6.0,6.0,99.0,6.0,99.0,3.0,4.0,5.0,6.0,6.0,3.0,6.0,6.0,4.0,4.0,5.0,4.0,4.0,6.0,4.0,,4.0,4.0,4.0,5.0,4.0,3.0,4.0,6.0,4.0,6.0,4.0,5.0,5.0,4.0,4.0,5.0,4.0,4.0,6.0,4.0,5.0,4.0,4.0,5.0,4.0,4.0,,6.0,6.0,4.0,6.0,6.0,4.0,,3.1,2.666667,4.0,4.0,3.333333,4.0,4.333333,4.4
10219,755,2020-04-14 11:32:46,EN,63,Female,"College degree, bachelor, master",Up to 12 years of school,Retired,United States,no,IL,Married/cohabiting,0.0,No,Life carries on with minor changes,3.0,0.0,Program A,,No,2.0,2.0,3.0,4.0,3.0,3.0,3.0,4.0,3.0,2.0,2.0,2.0,3.0,8.0,9.0,7.0,9.0,9.0,9.0,9.0,8.0,4.0,4.0,5.0,5.0,5.0,2.0,6.0,6.0,5.0,3.0,4.0,3.0,5.0,3.0,5.0,5.0,6.0,4.0,4.0,5.0,3.0,4.0,5.0,5.0,3.0,4.0,5.0,3.0,99.0,99.0,99.0,4.0,4.0,4.0,3.0,99.0,5.0,3.0,5.0,4.0,5.0,99.0,4.0,3.0,3.0,3.0,4.0,3.0,3.0,4.0,4.0,,5.0,5.0,5.0,5.0,5.0,5.0,5.0,5.0,6.0,6.0,4.0,4.0,4.0,4.0,4.0,5.0,3.0,2.0,6.0,6.0,4.0,4.0,4.0,5.0,5.0,4.0,,4.0,4.0,4.0,3.0,5.0,3.0,,2.5,2.333333,3.333333,4.666667,4.0,4.333333,3.666667,5.2
10235,874,2020-04-14 11:29:58,EN,62,Male,Up to 12 years of school,Up to 12 years of school,Full time employed,United States,yes,Washington (the State),Married/cohabiting,1.0,Yes,Life carries on as usual,1.0,0.0,,Program C,No,2.0,1.0,2.0,4.0,4.0,1.0,4.0,4.0,2.0,1.0,1.0,3.0,1.0,7.0,7.0,0.0,5.0,8.0,6.0,8.0,0.0,4.0,4.0,4.0,5.0,5.0,0.0,5.0,5.0,5.0,2.0,4.0,4.0,5.0,2.0,4.0,5.0,2.0,5.0,5.0,5.0,5.0,5.0,4.0,4.0,3.0,5.0,5.0,2.0,2.0,99.0,2.0,2.0,2.0,99.0,2.0,99.0,5.0,2.0,2.0,2.0,99.0,2.0,2.0,2.0,2.0,2.0,2.0,2.0,2.0,2.0,2.0,,3.0,3.0,2.0,2.0,5.0,5.0,5.0,5.0,5.0,3.0,1.0,4.0,2.0,2.0,2.0,5.0,1.0,1.0,5.0,2.0,3.0,3.0,4.0,4.0,1.0,1.0,,2.0,2.0,2.0,2.0,2.0,3.0,,1.7,1.666667,3.333333,3.0,5.0,3.333333,3.333333,3.8
10259,1186,2020-04-14 11:25:59,EN,55,Female,PhD/Doctorate,College degree,Full time employed,United States,no,MN,Married/cohabiting,2.0,Yes,Life carries on with minor changes,3.0,0.0,,Program D,No,3.0,3.0,3.0,3.0,3.0,3.0,3.0,3.0,3.0,3.0,2.0,3.0,3.0,3.0,8.0,2.0,7.0,7.0,7.0,7.0,2.0,3.0,5.0,4.0,5.0,5.0,1.0,5.0,5.0,5.0,2.0,3.0,4.0,5.0,4.0,3.0,4.0,3.0,5.0,5.0,4.0,5.0,4.0,4.0,4.0,4.0,2.0,5.0,4.0,3.0,5.0,5.0,4.0,4.0,4.0,3.0,99.0,5.0,3.0,5.0,5.0,6.0,4.0,3.0,4.0,4.0,6.0,4.0,4.0,2.0,4.0,4.0,"Concern for my own health is low (I am not in a high risk group and I am social distancing) but concern for my at risk family members is high (e.g., my mother with COPD who lives in an ALF with COVID19 cases and my aunt who has COVID19)",5.0,5.0,5.0,5.0,5.0,5.0,5.0,5.0,5.0,5.0,2.0,4.0,5.0,1.0,4.0,2.0,2.0,2.0,4.0,4.0,4.0,4.0,5.0,2.0,2.0,3.0,,3.0,4.0,4.0,3.0,3.0,3.0,"I feel fairly secure in the measures that my immediate family and I are taking to prevent the spread of COVID19. I am continuing to work hard as a university faculty member to keep my students unstressed on track. I stay in touch with family members who are far away and in areas that have high COVID19 case rates. I am concerned about the impact of social isolation on my 83 year old mother who lives (alone) in a ""locked down"" ALF where she must stay in her apartment (and at least 2 of her friends in the ALF are hospitalized with COVID19) I am concerned that the US federal government is being run by an bully-idiot and people too afraid to stand up for what's right. I feel concerned for the idiots who don't believe in science or the importance of doing what's right for the common good. I feel concerned about my finances with 3 kids in college, the status of higher education and potential cuts, and the status of my retirement fund which is now worth almost nothing.",3.0,2.666667,4.333333,3.0,4.666667,3.666667,4.666667,5.0
10299,678,2020-04-14 11:00:06,EN,72,Male,"College degree, bachelor, master",College degree,Retired,United States,no,OREGON,Married/cohabiting,0.0,No,Life carries on with minor changes,1.0,0.0,,Program C,No,1.0,1.0,2.0,5.0,5.0,1.0,5.0,1.0,1.0,1.0,1.0,1.0,1.0,3.0,10.0,0.0,1.0,9.0,0.0,7.0,0.0,5.0,5.0,5.0,5.0,5.0,1.0,5.0,5.0,6.0,1.0,4.0,6.0,4.0,2.0,5.0,2.0,5.0,2.0,6.0,6.0,,4.0,5.0,4.0,5.0,1.0,5.0,99.0,99.0,99.0,99.0,4.0,1.0,1.0,1.0,99.0,6.0,2.0,2.0,2.0,2.0,99.0,99.0,,1.0,1.0,2.0,,1.0,2.0,5.0,"The President of the USA being an ignorant, opportunistic, sociopathic liar.",6.0,5.0,5.0,6.0,6.0,6.0,6.0,6.0,5.0,6.0,1.0,1.0,6.0,2.0,3.0,1.0,1.0,1.0,5.0,3.0,3.0,5.0,5.0,5.0,5.0,6.0,"Information from our excellent STATE government = ""Strongly Agree.""  Information from DOTARD = Strongly Disagree",1.0,6.0,2.0,2.0,1.0,4.0,"We're both retired Veteran writer/musician/artists.  Weirdly enough, we're more/less ""hermits"" much of the time ANYHOW, so we've been incredibly fortunate with few changes (except for extreme care taken going out).  And unlike SO MANY people, we are financially, not ""well off"" but secure (social security).",1.5,1.0,2.666667,4.0,6.0,4.0,5.333333,5.7
10300,995,2020-04-14 11:04:21,EN,38,Male,"College degree, bachelor, master",Up to 12 years of school,Full time employed,United States,no,Ohio,Single,0.0,Yes,Life carries on with minor changes,,,,Program C,No,3.0,3.0,4.0,2.0,2.0,4.0,3.0,2.0,3.0,3.0,3.0,3.0,3.0,6.0,8.0,6.0,7.0,9.0,8.0,8.0,6.0,5.0,6.0,5.0,5.0,5.0,1.0,5.0,3.0,4.0,3.0,4.0,3.0,4.0,5.0,4.0,3.0,3.0,5.0,4.0,4.0,3.0,4.0,4.0,4.0,5.0,4.0,4.0,5.0,5.0,99.0,6.0,2.0,5.0,5.0,3.0,2.0,5.0,4.0,4.0,4.0,5.0,2.0,2.0,3.0,3.0,3.0,5.0,2.0,1.0,4.0,2.0,,3.0,5.0,3.0,3.0,2.0,3.0,3.0,4.0,3.0,4.0,4.0,2.0,4.0,2.0,4.0,3.0,2.0,2.0,3.0,4.0,2.0,4.0,3.0,4.0,4.0,4.0,,3.0,4.0,4.0,3.0,3.0,3.0,"Job offer rescinded due to travel restrictions, current job gave 20% pay cut due to decreased business from Coronavirus, uncertainty over future of job.",3.5,3.0,4.0,2.666667,3.666667,3.666667,4.0,3.3
10398,843,2020-04-14 10:25:06,EN,70,Male,"Some College, short continuing education or equivalent",Up to 12 years of school,Retired,United States,no,California,Married/cohabiting,0.0,Yes,Isolated,1.0,0.0,,Program D,No,2.0,2.0,4.0,5.0,4.0,1.0,4.0,5.0,2.0,2.0,1.0,1.0,5.0,6.0,10.0,0.0,6.0,8.0,2.0,8.0,1.0,6.0,6.0,6.0,6.0,6.0,0.0,6.0,6.0,5.0,6.0,5.0,4.0,2.0,1.0,6.0,4.0,3.0,2.0,5.0,5.0,5.0,4.0,6.0,5.0,5.0,1.0,6.0,99.0,99.0,99.0,99.0,5.0,2.0,1.0,1.0,99.0,6.0,99.0,5.0,6.0,6.0,99.0,99.0,1.0,2.0,2.0,1.0,5.0,1.0,5.0,6.0,,6.0,6.0,6.0,6.0,6.0,6.0,6.0,6.0,6.0,6.0,5.0,1.0,6.0,1.0,6.0,5.0,1.0,2.0,6.0,4.0,5.0,6.0,5.0,6.0,1.0,5.0,,2.0,4.0,3.0,5.0,4.0,5.0,,1.9,2.333333,1.333333,4.0,5.0,4.666667,5.666667,6.0
10473,141,2020-04-15 09:42:42,EN,21,Male,"Some College, short continuing education or equivalent",Up to 12 years of school,Part time employed,United States,no,IL,Single,0.0,Yes,Life carries on with minor changes,2.0,0.0,,Program D,,,,,,,,,,,,,,,,,,,,,,,,,,,,,,,,,,,,,,,,,,,,,,,,,,,,,,,,,,,,,,,,,,,,,,,,,,,,,,,,,,,,,,,,,,,,,,,,,,,,,,,,,,,,,,,,,,,,
10484,940,2020-04-14 09:47:44,EN,34,Male,"College degree, bachelor, master",Some College or equivalent,Retired,United States,no,Arizona,Single,0.0,Yes,Life carries on with minor changes,0.0,0.0,,Program C,No,1.0,1.0,2.0,5.0,4.0,1.0,5.0,3.0,1.0,1.0,2.0,1.0,2.0,7.0,7.0,3.0,6.0,6.0,6.0,9.0,8.0,2.0,5.0,2.0,2.0,4.0,5.0,5.0,5.0,5.0,1.0,3.0,2.0,2.0,3.0,6.0,2.0,1.0,6.0,2.0,2.0,2.0,4.0,4.0,5.0,5.0,4.0,5.0,2.0,2.0,99.0,99.0,1.0,1.0,1.0,99.0,99.0,4.0,1.0,2.0,3.0,5.0,1.0,1.0,1.0,1.0,1.0,99.0,1.0,1.0,2.0,1.0,,5.0,5.0,2.0,5.0,5.0,4.0,4.0,5.0,5.0,4.0,1.0,1.0,4.0,1.0,1.0,1.0,5.0,5.0,1.0,1.0,1.0,1.0,1.0,1.0,1.0,1.0,Didn't really know how to answer these because I'm not feeling much of any discomfort,1.0,5.0,4.0,1.0,1.0,1.0,,1.4,1.666667,2.0,1.333333,2.0,4.0,4.333333,4.4
10503,857,2020-04-14 09:36:57,EN,73,Male,"College degree, bachelor, master",Up to 12 years of school,Retired,United States,no,new york,Divorced/widowed,0.0,Yes,Isolated,0.0,0.0,,Program D,No,1.0,3.0,1.0,1.0,2.0,1.0,5.0,5.0,1.0,1.0,3.0,1.0,1.0,9.0,10.0,8.0,8.0,8.0,8.0,8.0,4.0,6.0,6.0,6.0,5.0,5.0,3.0,6.0,5.0,5.0,2.0,3.0,3.0,5.0,2.0,5.0,5.0,5.0,5.0,2.0,5.0,2.0,3.0,5.0,5.0,5.0,2.0,4.0,99.0,,99.0,99.0,2.0,5.0,99.0,99.0,99.0,5.0,5.0,6.0,6.0,5.0,99.0,3.0,99.0,,5.0,5.0,5.0,2.0,5.0,5.0,,5.0,5.0,5.0,5.0,5.0,5.0,5.0,5.0,5.0,5.0,5.0,5.0,6.0,6.0,6.0,5.0,1.0,1.0,5.0,5.0,5.0,2.0,5.0,5.0,2.0,5.0,,5.0,4.0,3.0,5.0,2.0,5.0,,1.9,1.666667,3.0,4.0,3.0,4.666667,4.666667,5.0
10520,602,2020-04-14 09:24:54,EN,40,Female,PhD/Doctorate,Some College or equivalent,Full time employed,United States,no,Ohio,Married/cohabiting,3.0,Yes,Life carries on with minor changes,2.0,3.0,Program A,,No,1.0,4.0,4.0,3.0,3.0,2.0,3.0,4.0,3.0,2.0,1.0,1.0,4.0,8.0,10.0,5.0,9.0,8.0,9.0,8.0,4.0,2.0,2.0,4.0,5.0,5.0,4.0,6.0,6.0,5.0,1.0,3.0,2.0,5.0,4.0,4.0,4.0,6.0,2.0,3.0,5.0,2.0,1.0,5.0,5.0,4.0,2.0,6.0,2.0,3.0,5.0,5.0,3.0,4.0,5.0,3.0,5.0,6.0,3.0,3.0,2.0,3.0,3.0,4.0,2.0,3.0,5.0,4.0,6.0,4.0,6.0,1.0,,,,,,,,,,,,2.0,5.0,4.0,5.0,4.0,4.0,1.0,1.0,4.0,5.0,4.0,4.0,3.0,2.0,3.0,5.0,,5.0,5.0,2.0,4.0,5.0,5.0,,2.7,2.0,4.0,5.0,3.333333,5.333333,5.0,
10526,2792,2020-04-14 09:57:50,SV,72,Female,PhD/Doctorate,Up to 12 years of school,Retired,United States,,"Guilford, Connecticut",Married/cohabiting,0.0,Yes,Isolated,1.0,0.0,Program A,,No,3.0,3.0,3.0,5.0,5.0,2.0,3.0,2.0,4.0,2.0,3.0,3.0,3.0,7.0,10.0,6.0,8.0,6.0,7.0,7.0,5.0,4.0,6.0,6.0,6.0,6.0,3.0,5.0,6.0,6.0,3.0,4.0,5.0,3.0,5.0,3.0,6.0,6.0,4.0,5.0,6.0,6.0,2.0,5.0,6.0,6.0,2.0,5.0,99.0,99.0,99.0,99.0,4.0,6.0,99.0,4.0,99.0,6.0,3.0,6.0,6.0,6.0,99.0,5.0,2.0,4.0,2.0,5.0,6.0,1.0,6.0,6.0,,6.0,6.0,6.0,6.0,6.0,6.0,6.0,6.0,6.0,6.0,3.0,1.0,6.0,1.0,1.0,4.0,1.0,1.0,4.0,4.0,4.0,3.0,1.0,5.0,1.0,3.0,,2.0,4.0,4.0,5.0,1.0,4.0,Min man och jag är båda virusforskare. Min man leder i sitt laboratorium vid Yale University ett forskningsprojekt för att utveckla ett vaccin mot SARS- CoV-2. Jag får korrekt information om viruset och pandemin vilket påverkar både min säkerhet och mitt välmående.,2.6,3.0,4.0,5.0,5.666667,5.333333,5.333333,6.0
10528,475,2020-04-14 09:18:22,EN,41,Female,PhD/Doctorate,College degree,Full time employed,United States,no,Michigan,Married/cohabiting,0.0,Yes,Life carries on with minor changes,1.0,0.0,Program A,,No,3.0,3.0,3.0,3.0,2.0,2.0,3.0,3.0,4.0,3.0,2.0,4.0,3.0,7.0,9.0,6.0,5.0,10.0,10.0,10.0,7.0,4.0,6.0,6.0,6.0,6.0,0.0,5.0,5.0,5.0,2.0,5.0,4.0,4.0,4.0,4.0,5.0,4.0,3.0,3.0,5.0,3.0,3.0,5.0,4.0,4.0,3.0,4.0,2.0,4.0,99.0,3.0,2.0,5.0,99.0,3.0,99.0,6.0,3.0,6.0,4.0,6.0,5.0,3.0,2.0,3.0,3.0,2.0,3.0,3.0,5.0,2.0,,6.0,6.0,6.0,6.0,6.0,6.0,6.0,6.0,6.0,6.0,5.0,5.0,6.0,2.0,5.0,5.0,1.0,1.0,5.0,5.0,5.0,4.0,3.0,3.0,2.0,4.0,,4.0,4.0,4.0,4.0,4.0,4.0,,3.1,3.0,3.666667,4.333333,3.666667,4.333333,4.0,6.0
10549,948,2020-04-14 09:16:30,EN,19,Female,"Some College, short continuing education or equivalent",College degree,Student,United States,no,Michigan,Single,0.0,No,Life carries on with minor changes,1.0,0.0,Program A,,No,4.0,4.0,4.0,3.0,3.0,4.0,3.0,3.0,3.0,3.0,3.0,3.0,4.0,7.0,9.0,3.0,3.0,,2.0,6.0,1.0,4.0,4.0,4.0,6.0,6.0,2.0,4.0,4.0,4.0,2.0,3.0,3.0,3.0,2.0,4.0,5.0,5.0,2.0,4.0,3.0,4.0,2.0,4.0,5.0,3.0,2.0,4.0,5.0,5.0,99.0,6.0,4.0,5.0,4.0,4.0,99.0,5.0,3.0,5.0,6.0,5.0,5.0,5.0,5.0,5.0,5.0,5.0,4.0,4.0,5.0,4.0,,5.0,5.0,6.0,6.0,6.0,5.0,5.0,5.0,5.0,6.0,3.0,4.0,5.0,3.0,3.0,4.0,4.0,5.0,4.0,4.0,3.0,2.0,3.0,4.0,4.0,2.0,,5.0,5.0,4.0,5.0,5.0,4.0,,3.4,3.333333,2.666667,5.0,3.666667,4.666667,4.0,5.4
10568,815,2020-04-14 09:02:06,EN,66,Female,PhD/Doctorate,College degree,Self-employed,United States,no,California,Divorced/widowed,0.0,Yes,Life carries on with minor changes,0.0,0.0,,Program C,Yes,1.0,1.0,2.0,5.0,4.0,1.0,4.0,4.0,1.0,1.0,4.0,3.0,5.0,9.0,9.0,2.0,5.0,7.0,7.0,7.0,0.0,6.0,6.0,6.0,6.0,6.0,0.0,5.0,6.0,6.0,1.0,3.0,1.0,6.0,1.0,6.0,3.0,5.0,2.0,6.0,6.0,5.0,2.0,6.0,6.0,5.0,2.0,6.0,4.0,99.0,99.0,99.0,2.0,3.0,99.0,99.0,99.0,6.0,,99.0,2.0,4.0,1.0,1.0,2.0,4.0,2.0,5.0,5.0,2.0,5.0,5.0,,5.0,5.0,5.0,5.0,5.0,5.0,5.0,5.0,5.0,5.0,4.0,4.0,5.0,5.0,5.0,2.0,1.0,1.0,4.0,5.0,4.0,2.0,5.0,2.0,3.0,2.0,Meditation,3.0,5.0,5.0,3.0,5.0,5.0,"I have tested positive, so my awareness and concerns about ""catching"" COVID are reduced.  I continue to adhere to social distancing and masking requirements.",1.4,4.0,2.666667,4.333333,5.666667,5.666667,5.333333,5.0
10644,23073,2020-04-15 14:37:48,EN,75,Female,"College degree, bachelor, master",Up to 12 years of school,Retired,United States,no,Geporgia,Divorced/widowed,0.0,Yes,Life carries on with minor changes,0.0,0.0,Program A,,No,2.0,3.0,3.0,5.0,4.0,3.0,4.0,2.0,3.0,1.0,4.0,2.0,3.0,9.0,10.0,8.0,10.0,10.0,9.0,10.0,10.0,4.0,4.0,4.0,4.0,4.0,5.0,6.0,6.0,6.0,1.0,3.0,2.0,6.0,4.0,5.0,5.0,6.0,4.0,5.0,5.0,5.0,2.0,5.0,5.0,5.0,2.0,5.0,99.0,99.0,99.0,99.0,1.0,5.0,5.0,99.0,99.0,3.0,1.0,6.0,5.0,6.0,99.0,5.0,2.0,5.0,5.0,6.0,3.0,2.0,4.0,99.0,,6.0,6.0,6.0,5.0,6.0,4.0,6.0,6.0,5.0,6.0,5.0,5.0,6.0,6.0,6.0,4.0,1.0,1.0,5.0,5.0,5.0,5.0,2.0,4.0,6.0,5.0,,4.0,2.0,2.0,4.0,4.0,5.0,,2.4,3.0,4.0,4.666667,5.0,5.0,5.0,5.6
10675,641,2020-04-14 08:03:58,EN,62,Female,PhD/Doctorate,College degree,Full time employed,United States,no,Kentucky,Married/cohabiting,0.0,Yes,Life carries on with minor changes,1.0,0.0,,Program C,Not sure,1.0,1.0,2.0,5.0,4.0,1.0,4.0,4.0,1.0,1.0,1.0,1.0,2.0,7.0,9.0,2.0,4.0,6.0,7.0,7.0,2.0,4.0,5.0,5.0,5.0,5.0,3.0,5.0,5.0,5.0,2.0,5.0,5.0,5.0,2.0,5.0,3.0,2.0,5.0,5.0,6.0,5.0,2.0,6.0,6.0,5.0,1.0,5.0,3.0,1.0,1.0,1.0,2.0,3.0,1.0,1.0,1.0,3.0,2.0,4.0,4.0,5.0,2.0,2.0,1.0,1.0,2.0,2.0,2.0,3.0,5.0,1.0,,6.0,6.0,6.0,6.0,6.0,6.0,6.0,6.0,6.0,6.0,3.0,5.0,6.0,2.0,5.0,5.0,1.0,1.0,5.0,5.0,4.0,4.0,5.0,5.0,5.0,3.0,,3.0,5.0,5.0,4.0,5.0,4.0,,1.4,1.333333,3.0,2.333333,5.333333,5.666667,5.333333,6.0
10681,663,2020-04-14 07:59:37,EN,20,Female,"Some College, short continuing education or equivalent",College degree,Student,United States,no,Michigan,Single,0.0,Yes,Isolated,4.0,0.0,,Program D,No,3.0,3.0,4.0,4.0,3.0,3.0,3.0,4.0,3.0,3.0,3.0,3.0,4.0,5.0,9.0,4.0,5.0,6.0,5.0,8.0,3.0,5.0,5.0,5.0,5.0,5.0,0.0,5.0,4.0,5.0,1.0,4.0,5.0,5.0,5.0,3.0,2.0,2.0,5.0,3.0,2.0,2.0,3.0,4.0,4.0,5.0,3.0,4.0,5.0,5.0,99.0,5.0,2.0,4.0,99.0,5.0,99.0,5.0,99.0,5.0,4.0,5.0,5.0,5.0,99.0,5.0,5.0,6.0,5.0,4.0,5.0,5.0,,5.0,4.0,4.0,4.0,5.0,4.0,5.0,5.0,2.0,5.0,2.0,5.0,5.0,2.0,4.0,1.0,2.0,2.0,5.0,4.0,4.0,5.0,2.0,4.0,2.0,4.0,,5.0,5.0,5.0,4.0,2.0,4.0,,2.9,3.333333,4.666667,2.0,2.333333,4.0,4.333333,4.3
10683,859,2020-04-14 08:01:56,EN,56,Female,PhD/Doctorate,College degree,Full time employed,United States,no,Rhode Island,Divorced/widowed,0.0,No,Isolated,0.0,0.0,,Program C,No,2.0,4.0,5.0,3.0,3.0,5.0,3.0,2.0,4.0,4.0,5.0,3.0,5.0,6.0,9.0,3.0,5.0,3.0,0.0,5.0,0.0,4.0,5.0,6.0,6.0,6.0,0.0,6.0,5.0,6.0,2.0,3.0,5.0,5.0,4.0,4.0,3.0,3.0,6.0,5.0,6.0,6.0,2.0,5.0,5.0,5.0,1.0,5.0,3.0,6.0,99.0,2.0,5.0,5.0,99.0,99.0,99.0,6.0,5.0,4.0,5.0,6.0,5.0,4.0,3.0,6.0,4.0,4.0,5.0,3.0,4.0,5.0,"As a person responsible for a staff, I worry that they'll lose their jobs and I won't be able to stop that| I worry about people's pets, finding food for them, caring for them, kindness to them| I worry about food waste in this country given distribution challenges| I worry that our cavalier attitude towards ""essential workers"" normally will not shift to a recognition of their work permanently, once ""essential"" isn't a category| I don't like how we're in general instrumentalizing people and prioritizing their lives this way. I have a lot of worries, actually, not directly reflected in this survey.",2.0,2.0,5.0,2.0,4.0,4.0,5.0,5.0,5.0,3.0,1.0,1.0,4.0,1.0,5.0,3.0,1.0,1.0,5.0,5.0,3.0,2.0,5.0,4.0,1.0,1.0,Taking care of my dog| interactions with my mail carrier (the only in-person person I talk to regularly)| working hard in my garden.,1.0,5.0,5.0,2.0,2.0,2.0,,3.7,4.333333,4.0,2.333333,5.666667,5.0,5.333333,3.7
10700,760,2020-04-14 07:50:29,EN,20,Female,"Some College, short continuing education or equivalent",College degree,Student,United States,no,Michigan,Single,0.0,Yes,Isolated,0.0,0.0,Program A,,No,3.0,4.0,4.0,3.0,3.0,3.0,3.0,3.0,5.0,5.0,3.0,3.0,3.0,5.0,9.0,2.0,7.0,2.0,4.0,4.0,4.0,4.0,6.0,6.0,5.0,5.0,6.0,2.0,4.0,4.0,5.0,4.0,2.0,5.0,4.0,3.0,5.0,5.0,2.0,4.0,4.0,3.0,5.0,6.0,6.0,5.0,4.0,6.0,4.0,5.0,99.0,4.0,6.0,6.0,6.0,99.0,99.0,4.0,5.0,6.0,6.0,6.0,2.0,5.0,5.0,6.0,3.0,99.0,6.0,4.0,6.0,2.0,,5.0,5.0,2.0,6.0,6.0,4.0,6.0,6.0,5.0,6.0,4.0,6.0,5.0,4.0,5.0,2.0,4.0,6.0,5.0,4.0,5.0,4.0,4.0,5.0,5.0,5.0,,2.0,2.0,2.0,2.0,2.0,6.0,,3.6,3.0,4.333333,5.0,3.666667,4.666667,4.666667,5.1
10710,650,2020-04-14 07:42:04,EN,57,Female,PhD/Doctorate,College degree,Full time employed,United States,yes,NC,Married/cohabiting,2.0,Yes,Isolated,3.0,0.0,,Program D,No,4.0,1.0,5.0,1.0,1.0,5.0,1.0,1.0,5.0,5.0,3.0,4.0,4.0,6.0,8.0,2.0,2.0,4.0,1.0,5.0,0.0,3.0,5.0,4.0,6.0,6.0,2.0,4.0,5.0,5.0,2.0,4.0,3.0,5.0,5.0,1.0,4.0,1.0,6.0,5.0,6.0,4.0,4.0,4.0,4.0,3.0,6.0,4.0,3.0,4.0,5.0,6.0,5.0,4.0,2.0,6.0,99.0,6.0,2.0,5.0,3.0,5.0,2.0,2.0,3.0,4.0,2.0,5.0,2.0,2.0,5.0,5.0,"Impact on disabled people, I am caregiver for disabled adult child.",4.0,4.0,2.0,2.0,5.0,2.0,5.0,4.0,2.0,5.0,3.0,2.0,4.0,2.0,5.0,3.0,4.0,1.0,5.0,3.0,2.0,3.0,4.0,4.0,3.0,2.0,"No f2f interactions with colleagues currently. We are on social distance rules, all are working from home",3.0,5.0,3.0,3.0,4.0,4.0,"General trust in civic society, hoping that law and order will not break down.  Good people in ordinary jobs doing the right thing.  Our political leaders are useless at the Federal level, hopefully at the State level they are better.",4.5,3.666667,5.333333,2.0,5.0,3.666667,2.666667,3.5
10715,1660,2020-04-14 07:57:00,EN,71,Male,PhD/Doctorate,Some College or equivalent,Retired,United States,no,"Washington, D.C.",Married/cohabiting,0.0,Yes,Life carries on with minor changes,1.0,0.0,Program A,,No,2.0,5.0,3.0,5.0,5.0,1.0,4.0,4.0,3.0,1.0,1.0,1.0,2.0,8.0,10.0,5.0,9.0,9.0,8.0,9.0,5.0,6.0,6.0,6.0,6.0,6.0,3.0,6.0,6.0,6.0,2.0,5.0,6.0,5.0,1.0,5.0,6.0,6.0,2.0,5.0,6.0,5.0,2.0,5.0,6.0,5.0,1.0,6.0,1.0,4.0,1.0,1.0,5.0,4.0,3.0,1.0,1.0,4.0,2.0,5.0,5.0,5.0,1.0,4.0,1.0,2.0,2.0,4.0,2.0,1.0,5.0,5.0,,6.0,5.0,6.0,6.0,6.0,6.0,6.0,6.0,5.0,6.0,3.0,6.0,6.0,5.0,6.0,2.0,1.0,1.0,5.0,5.0,5.0,4.0,5.0,6.0,5.0,5.0,,3.0,4.0,4.0,4.0,1.0,5.0,"The continued and ever-present ignorance, arrogance, and venality of the current President of the United States and his sycophants has upset me tremendously.  His presence, and theirs, is toxic to my well being and to that of thousands of other people in the United States and he is responsible for the needless deaths of thousands of people.  This is the part of the U.S. Government that I find most distressing, untrustworthy, and therefore dangerous to my well-being.",2.1,1.333333,2.666667,5.666667,5.333333,5.333333,5.666667,5.8
10737,1605,2020-04-14 07:44:12,EN,35,Female,PhD/Doctorate,College degree,Full time employed,United States,yes,PA,Married/cohabiting,2.0,Yes,Isolated,1.0,2.0,Program A,,No,3.0,3.0,4.0,4.0,3.0,2.0,2.0,3.0,3.0,4.0,1.0,3.0,3.0,5.0,7.0,3.0,2.0,6.0,4.0,8.0,2.0,5.0,6.0,5.0,6.0,5.0,2.0,6.0,3.0,6.0,1.0,4.0,6.0,5.0,6.0,5.0,3.0,2.0,5.0,5.0,4.0,6.0,5.0,3.0,4.0,5.0,4.0,5.0,1.0,5.0,5.0,2.0,5.0,4.0,1.0,3.0,6.0,5.0,4.0,5.0,5.0,5.0,2.0,4.0,1.0,1.0,5.0,4.0,2.0,1.0,6.0,99.0,,6.0,4.0,5.0,6.0,6.0,5.0,6.0,6.0,5.0,6.0,2.0,5.0,5.0,1.0,2.0,3.0,1.0,1.0,6.0,2.0,1.0,2.0,4.0,4.0,1.0,2.0,,3.0,5.0,5.0,5.0,5.0,3.0,,3.1,2.333333,4.333333,2.333333,5.0,3.0,4.333333,5.5
10743,1680,2020-04-14 07:43:50,EN,31,Female,PhD/Doctorate,Some College or equivalent,Full time employed,United States,no,FL,Married/cohabiting,0.0,Yes,Life carries on with minor changes,1.0,0.0,Program A,,No,5.0,3.0,5.0,4.0,3.0,4.0,3.0,3.0,3.0,2.0,5.0,2.0,4.0,8.0,9.0,0.0,1.0,1.0,1.0,9.0,0.0,5.0,5.0,5.0,6.0,6.0,0.0,6.0,5.0,5.0,1.0,4.0,4.0,4.0,4.0,5.0,3.0,2.0,4.0,4.0,5.0,4.0,4.0,6.0,6.0,4.0,2.0,6.0,1.0,5.0,99.0,1.0,1.0,6.0,6.0,2.0,99.0,5.0,1.0,6.0,6.0,6.0,1.0,3.0,1.0,6.0,3.0,2.0,3.0,2.0,6.0,2.0,,6.0,6.0,6.0,6.0,6.0,6.0,6.0,6.0,6.0,6.0,1.0,6.0,6.0,6.0,6.0,2.0,4.0,6.0,6.0,4.0,5.0,4.0,3.0,4.0,6.0,2.0,,1.0,5.0,6.0,3.0,2.0,4.0,My wedding is/was supposed to be May 23rd and the uncertainty of knowing whether or not I should cancel or have it has been the majority of my sadness and stress during this time.,3.3,3.666667,3.333333,2.666667,4.333333,5.0,5.0,6.0
10757,750,2020-04-14 07:21:00,EN,60,Female,"College degree, bachelor, master",Up to 12 years of school,Full time employed,United States,no,Illinois,Married/cohabiting,1.0,Yes,Life carries on with minor changes,1.0,0.0,,Program D,No,1.0,2.0,3.0,4.0,4.0,2.0,4.0,4.0,2.0,2.0,1.0,3.0,1.0,6.0,8.0,6.0,8.0,6.0,10.0,6.0,8.0,6.0,6.0,6.0,6.0,6.0,4.0,6.0,5.0,6.0,2.0,2.0,2.0,6.0,2.0,5.0,1.0,1.0,6.0,3.0,5.0,3.0,5.0,4.0,4.0,5.0,5.0,6.0,99.0,5.0,99.0,99.0,2.0,2.0,2.0,2.0,99.0,5.0,1.0,5.0,5.0,5.0,99.0,2.0,2.0,2.0,2.0,4.0,2.0,1.0,5.0,,,5.0,5.0,5.0,5.0,5.0,5.0,5.0,5.0,5.0,5.0,5.0,4.0,5.0,5.0,5.0,5.0,5.0,2.0,5.0,5.0,4.0,6.0,4.0,5.0,6.0,5.0,,2.0,2.0,2.0,2.0,2.0,5.0,,2.0,1.666667,3.333333,1.0,3.666667,3.333333,4.333333,5.0
10759,2118,2020-04-14 07:43:33,EN,77,Female,PhD/Doctorate,Up to 12 years of school,Full time employed,United States,no,Nebraska,Married/cohabiting,0.0,Yes,Isolated,1.0,0.0,,,,,3.0,3.0,5.0,3.0,3.0,4.0,3.0,2.0,2.0,2.0,3.0,3.0,7.0,9.0,2.0,5.0,5.0,,5.0,4.0,3.0,4.0,4.0,6.0,6.0,3.0,4.0,5.0,4.0,4.0,5.0,4.0,6.0,2.0,5.0,6.0,4.0,2.0,6.0,6.0,6.0,1.0,6.0,5.0,3.0,1.0,6.0,2.0,5.0,,5.0,99.0,4.0,6.0,1.0,99.0,99.0,3.0,3.0,4.0,4.0,4.0,3.0,1.0,2.0,3.0,6.0,2.0,2.0,4.0,5.0,"I am excited about my learning to move work to digital dimension - I had been reluctant to do so - excited by finding new ways to do things, but miss the presence of students and friends - Questions do not address this",6.0,4.0,6.0,6.0,6.0,5.0,6.0,6.0,5.0,6.0,2.0,,6.0,,6.0,5.0,1.0,1.0,4.0,4.0,3.0,3.0,5.0,2.0,6.0,4.0,"Questions do not take account of Working from Home (requires many hours).  Also in USA the national government is now dysfunctional, but many state and local governments are working effectively",5.0,6.0,6.0,6.0,6.0,4.0,"In my location all public gathering places are closed (churches, parks, health clubs, pubs, restaurants ...) and many are working from home (WFH) full time - one stress-inducing factor of WFH is the many household projects that lear at one all day as they attempt to work (e.g., cleaning closets ... .)",2.444444,2.666667,3.333333,5.0,6.0,5.666667,5.0,5.6
10760,815,2020-04-14 07:20:58,EN,66,Male,"College degree, bachelor, master",PhD/Doctorate,Retired,United States,no,MI,Married/cohabiting,0.0,Yes,Isolated,2.0,0.0,,Program D,No,3.0,3.0,3.0,5.0,4.0,2.0,3.0,3.0,3.0,2.0,2.0,3.0,4.0,6.0,8.0,3.0,4.0,6.0,5.0,8.0,2.0,4.0,6.0,5.0,6.0,6.0,0.0,5.0,4.0,5.0,5.0,4.0,2.0,5.0,4.0,4.0,5.0,6.0,2.0,6.0,6.0,6.0,5.0,4.0,2.0,5.0,5.0,6.0,5.0,99.0,99.0,99.0,4.0,6.0,99.0,5.0,99.0,6.0,5.0,4.0,4.0,6.0,5.0,6.0,4.0,5.0,5.0,5.0,2.0,4.0,6.0,6.0,,6.0,6.0,6.0,6.0,6.0,6.0,6.0,6.0,6.0,6.0,5.0,5.0,5.0,2.0,5.0,4.0,3.0,2.0,6.0,4.0,4.0,4.0,4.0,4.0,2.0,5.0,,5.0,5.0,5.0,3.0,5.0,1.0,,2.5,3.0,4.0,5.333333,6.0,2.666667,4.333333,6.0
10778,751,2020-04-14 07:08:57,EN,25,Female,"College degree, bachelor, master",College degree,Student,United States,no,Alabama,Single,0.0,Yes,Isolated,0.0,0.0,Program B,,No,4.0,5.0,4.0,3.0,1.0,4.0,3.0,2.0,5.0,3.0,1.0,2.0,3.0,3.0,6.0,2.0,3.0,2.0,2.0,7.0,2.0,6.0,5.0,6.0,5.0,4.0,2.0,5.0,4.0,4.0,1.0,2.0,3.0,5.0,5.0,2.0,3.0,2.0,5.0,2.0,4.0,3.0,4.0,3.0,3.0,3.0,4.0,3.0,3.0,4.0,99.0,5.0,4.0,5.0,99.0,99.0,99.0,4.0,2.0,4.0,4.0,6.0,99.0,99.0,2.0,2.0,5.0,2.0,3.0,2.0,6.0,3.0,,6.0,5.0,4.0,6.0,6.0,5.0,6.0,6.0,5.0,6.0,2.0,1.0,5.0,1.0,5.0,4.0,4.0,2.0,4.0,2.0,2.0,2.0,4.0,4.0,2.0,3.0,,1.0,2.0,2.0,4.0,2.0,4.0,,4.0,2.0,5.0,2.333333,3.0,3.0,3.0,5.5
10786,220,2020-04-15 06:55:25,EN,56,Female,"College degree, bachelor, master",College degree,Full time employed,United States,no,NY,Divorced/widowed,2.0,Yes,Isolated,2.0,0.0,,,,,,,,,,,,,,,,,,,,,,,,,,,,,,,,,,,,,,,,,,,,,,,,,,,,,,,,,,,,,,,,,,,,,,,,,,,,,,,,,,,,,,,,,,,,,,,,,,,,,,,,,,,,,,,,,,,,,,
10860,636,2020-04-15 06:15:26,EN,58,Female,PhD/Doctorate,College degree,Full time employed,United States,no,ohio,Married/cohabiting,3.0,Yes,Life carries on as usual,3.0,0.0,,,,2.0,4.0,3.0,4.0,3.0,2.0,4.0,3.0,2.0,2.0,2.0,2.0,3.0,7.0,9.0,6.0,8.0,8.0,9.0,9.0,5.0,6.0,6.0,6.0,6.0,6.0,3.0,5.0,5.0,3.0,2.0,4.0,3.0,5.0,2.0,4.0,4.0,5.0,4.0,5.0,6.0,4.0,1.0,6.0,5.0,4.0,1.0,5.0,,,,,,,,,,,,,,,,,,,,,,,,,,,,,,,,,,,,,,,,,,,,,,,,,,,,,,,,,,,,2.5,2.333333,3.333333,4.0,5.0,5.666667,5.0,
10862,776,2020-04-14 06:15:09,EN,68,Male,PhD/Doctorate,College degree,Full time employed,United States,no,MS,Married/cohabiting,0.0,Yes,Life carries on with minor changes,1.0,0.0,,Program D,No,2.0,2.0,3.0,4.0,4.0,2.0,3.0,3.0,1.0,2.0,1.0,2.0,1.0,8.0,8.0,6.0,6.0,6.0,8.0,3.0,5.0,5.0,4.0,4.0,6.0,6.0,4.0,5.0,4.0,4.0,2.0,4.0,2.0,2.0,2.0,5.0,4.0,3.0,4.0,4.0,4.0,4.0,2.0,6.0,5.0,4.0,4.0,5.0,1.0,4.0,99.0,2.0,3.0,2.0,3.0,2.0,99.0,5.0,2.0,4.0,3.0,3.0,4.0,2.0,2.0,2.0,3.0,2.0,2.0,2.0,4.0,99.0,,5.0,5.0,5.0,6.0,6.0,5.0,6.0,6.0,5.0,5.0,4.0,5.0,5.0,2.0,5.0,3.0,4.0,1.0,4.0,4.0,2.0,4.0,5.0,2.0,6.0,4.0,,4.0,2.0,3.0,2.0,4.0,4.0,,2.2,1.333333,2.0,3.333333,4.0,5.333333,4.0,5.4
10868,406,2020-04-15 06:06:36,EN,50,Female,PhD/Doctorate,College degree,Full time employed,United States,no,Pennyslvania,Married/cohabiting,2.0,Yes,Isolated,2.0,1.0,,Program C,Not sure,2.0,1.0,3.0,5.0,4.0,2.0,4.0,4.0,1.0,1.0,1.0,1.0,4.0,8.0,10.0,7.0,10.0,10.0,7.0,6.0,5.0,5.0,6.0,5.0,5.0,5.0,3.0,6.0,6.0,6.0,1.0,5.0,3.0,,,,,,,,,,,,,,,,,,,,,,,,,,,,,,,,,,,,,,,,,,,,,,,,,,,,,,,,,,,,,,,,,,,,,,,,,,,1.7,2.0,,,,,,
10881,1488,2020-04-14 06:19:28,EN,85,Female,PhD/Doctorate,Up to 12 years of school,Retired,United States,no,Massachusetts,Married/cohabiting,0.0,Yes,Isolated,1.0,0.0,,,,2.0,2.0,2.0,5.0,4.0,1.0,5.0,5.0,3.0,1.0,1.0,1.0,2.0,9.0,9.0,5.0,7.0,9.0,7.0,7.0,4.0,6.0,5.0,5.0,5.0,5.0,2.0,6.0,6.0,6.0,1.0,5.0,3.0,5.0,2.0,6.0,6.0,6.0,1.0,4.0,6.0,3.0,1.0,3.0,5.0,5.0,1.0,6.0,1.0,99.0,99.0,99.0,1.0,2.0,99.0,4.0,99.0,6.0,3.0,6.0,6.0,5.0,4.0,5.0,99.0,1.0,3.0,4.0,2.0,2.0,4.0,5.0,,6.0,6.0,6.0,6.0,6.0,6.0,6.0,6.0,6.0,6.0,4.0,5.0,6.0,6.0,6.0,5.0,1.0,1.0,6.0,6.0,3.0,6.0,6.0,6.0,1.0,6.0,,4.0,3.0,1.0,2.0,4.0,6.0,volunteer work through social media and the telephone to help elder shut ins has been gratifying,1.6,1.333333,2.666667,6.0,4.333333,4.666667,5.666667,6.0
10894,1215,2020-04-14 06:08:40,EN,58,Female,"College degree, bachelor, master",College degree,Part time employed,United States,no,New york,Divorced/widowed,2.0,Yes,Isolated,2.0,0.0,Program A,,No,3.0,3.0,3.0,4.0,3.0,1.0,4.0,3.0,3.0,2.0,1.0,3.0,4.0,7.0,8.0,4.0,7.0,8.0,5.0,6.0,1.0,5.0,6.0,5.0,5.0,5.0,4.0,6.0,6.0,5.0,3.0,4.0,2.0,5.0,2.0,5.0,5.0,5.0,4.0,1.0,6.0,1.0,2.0,6.0,5.0,4.0,2.0,1.0,6.0,6.0,99.0,6.0,6.0,6.0,4.0,6.0,99.0,6.0,5.0,6.0,4.0,6.0,6.0,6.0,4.0,6.0,6.0,6.0,4.0,3.0,6.0,6.0,,6.0,5.0,6.0,5.0,6.0,5.0,5.0,6.0,5.0,6.0,2.0,6.0,6.0,5.0,5.0,6.0,4.0,6.0,5.0,5.0,5.0,6.0,4.0,5.0,4.0,4.0,,3.0,6.0,6.0,6.0,6.0,4.0,,2.5,2.666667,3.0,4.333333,2.666667,5.333333,3.333333,5.5
10916,207,2020-04-15 05:36:12,EN,49,Female,,College degree,Full time employed,United States,no,texas,Married/cohabiting,0.0,Yes,Life carries on with minor changes,,,,Program D,,,,,,,,,,,,,,,,,,,,,,,,,,,,,,,,,,,,,,,,,,,,,,,,,,,,,,,,,,,,,,,,,,,,,,,,,,,,,,,,,,,,,,,,,,,,,,,,,,,,,,,,,,,,,,,,,,,,
11021,213,2020-04-15 04:27:26,EN,60,Female,"College degree, bachelor, master",Some College or equivalent,Full time employed,United States,no,IL,Married/cohabiting,0.0,No,Isolated,3.0,0.0,Program A,,No,2.0,3.0,3.0,4.0,3.0,3.0,3.0,3.0,3.0,3.0,1.0,3.0,4.0,,,,,,,,,,,,,,,,,,,,,,,,,,,,,,,,,,,,,,,,,,,,,,,,,,,,,,,,,,,,,,,,,,,,,,,,,,,,,,,,,,,,,,,,,,,,,,,2.8,2.666667,,,,,,
11034,20900,2020-04-14 10:00:29,EN,30,Female,PhD/Doctorate,College degree,Full time employed,United States,no,WI,Single,0.0,Yes,Life carries on with minor changes,1.0,0.0,Program A,,No,3.0,2.0,3.0,5.0,4.0,1.0,4.0,4.0,2.0,1.0,1.0,1.0,1.0,3.0,9.0,1.0,2.0,3.0,5.0,0.0,5.0,4.0,4.0,4.0,6.0,5.0,6.0,6.0,6.0,6.0,2.0,3.0,4.0,4.0,3.0,5.0,4.0,2.0,5.0,3.0,4.0,4.0,4.0,5.0,5.0,6.0,1.0,5.0,5.0,4.0,99.0,3.0,2.0,5.0,6.0,1.0,99.0,5.0,3.0,3.0,3.0,2.0,1.0,2.0,1.0,3.0,5.0,5.0,1.0,1.0,6.0,3.0,,6.0,6.0,5.0,6.0,6.0,6.0,6.0,6.0,6.0,6.0,3.0,5.0,5.0,5.0,5.0,5.0,1.0,1.0,4.0,6.0,5.0,4.0,6.0,6.0,6.0,4.0,,4.0,5.0,5.0,4.0,5.0,4.0,,1.9,1.0,3.0,2.666667,3.666667,4.333333,5.666667,5.9
11074,598,2020-04-14 03:48:05,EN,55,Female,PhD/Doctorate,Some College or equivalent,Full time employed,United States,no,North Carolina,Married/cohabiting,0.0,Yes,Life carries on with minor changes,1.0,0.0,Program A,,No,4.0,3.0,5.0,3.0,2.0,4.0,3.0,3.0,4.0,4.0,3.0,3.0,3.0,6.0,10.0,2.0,10.0,10.0,5.0,5.0,3.0,5.0,6.0,5.0,5.0,5.0,5.0,5.0,5.0,6.0,3.0,3.0,5.0,3.0,3.0,4.0,3.0,4.0,4.0,4.0,5.0,4.0,3.0,5.0,6.0,5.0,2.0,6.0,5.0,2.0,99.0,2.0,6.0,3.0,5.0,2.0,99.0,6.0,3.0,4.0,4.0,3.0,3.0,2.0,3.0,5.0,3.0,3.0,4.0,2.0,6.0,1.0,,6.0,6.0,6.0,6.0,5.0,6.0,6.0,6.0,6.0,6.0,1.0,6.0,5.0,6.0,3.0,1.0,1.0,1.0,3.0,6.0,3.0,5.0,6.0,6.0,6.0,3.0,,1.0,1.0,1.0,2.0,2.0,4.0,,3.7,3.0,3.0,3.333333,4.333333,5.0,5.333333,5.9
11179,954,2020-04-14 02:36:11,EN,18,Male,Up to 12 years of school,College degree,Student,United States,no,Illinois,Single,0.0,Yes,Isolated,4.0,2.0,,Program D,No,4.0,3.0,4.0,3.0,3.0,5.0,4.0,3.0,5.0,3.0,4.0,3.0,5.0,7.0,9.0,5.0,6.0,5.0,7.0,8.0,4.0,2.0,4.0,4.0,5.0,6.0,4.0,4.0,3.0,3.0,6.0,1.0,2.0,4.0,2.0,6.0,6.0,6.0,1.0,4.0,5.0,5.0,4.0,6.0,5.0,3.0,2.0,5.0,6.0,5.0,99.0,5.0,3.0,6.0,1.0,6.0,3.0,5.0,5.0,4.0,4.0,5.0,99.0,6.0,4.0,6.0,5.0,2.0,3.0,2.0,6.0,6.0,,6.0,6.0,5.0,3.0,5.0,4.0,1.0,5.0,6.0,5.0,4.0,6.0,5.0,2.0,2.0,4.0,5.0,2.0,5.0,5.0,2.0,2.0,2.0,2.0,1.0,4.0,,5.0,5.0,2.0,3.0,5.0,2.0,,3.5,4.0,2.333333,6.0,4.666667,4.666667,4.333333,4.6
11449,725,2020-04-14 23:27:28,EN,49,Female,"College degree, bachelor, master",Some College or equivalent,Part time employed,United States,no,Illinois,Married/cohabiting,5.0,Yes,Isolated,4.0,1.0,,Program C,No,2.0,4.0,4.0,3.0,3.0,3.0,3.0,3.0,3.0,4.0,1.0,3.0,3.0,7.0,9.0,5.0,8.0,8.0,7.0,9.0,3.0,6.0,5.0,5.0,5.0,5.0,3.0,5.0,5.0,5.0,2.0,4.0,2.0,5.0,4.0,4.0,3.0,1.0,6.0,3.0,4.0,2.0,2.0,5.0,5.0,5.0,2.0,4.0,99.0,3.0,5.0,99.0,4.0,3.0,2.0,5.0,6.0,5.0,4.0,6.0,6.0,4.0,3.0,3.0,4.0,2.0,4.0,6.0,99.0,3.0,5.0,4.0,,,,,,,,,,,,,,,,,,,,,,,,,,,,,,,,,,,,3.2,2.333333,4.0,1.666667,3.0,5.0,4.666667,
11517,788,2020-04-14 22:15:29,EN,60,Male,"College degree, bachelor, master",Up to 12 years of school,Full time employed,United States,no,,Married/cohabiting,1.0,No,Life carries on with minor changes,2.0,0.0,Program B,,Not sure,1.0,5.0,3.0,5.0,4.0,2.0,3.0,4.0,1.0,2.0,1.0,2.0,3.0,7.0,9.0,7.0,10.0,8.0,9.0,6.0,8.0,6.0,6.0,6.0,6.0,6.0,7.0,6.0,6.0,6.0,3.0,4.0,2.0,5.0,2.0,6.0,4.0,3.0,5.0,4.0,5.0,3.0,4.0,5.0,5.0,5.0,2.0,5.0,99.0,3.0,5.0,99.0,2.0,5.0,5.0,2.0,99.0,6.0,2.0,5.0,3.0,4.0,99.0,2.0,2.0,2.0,4.0,2.0,1.0,2.0,5.0,2.0,,5.0,6.0,5.0,6.0,5.0,5.0,6.0,6.0,5.0,6.0,5.0,3.0,5.0,6.0,5.0,5.0,4.0,4.0,6.0,5.0,4.0,4.0,4.0,4.0,5.0,6.0,,4.0,3.0,4.0,3.0,2.0,4.0,,2.2,2.0,2.666667,3.0,4.0,4.333333,5.0,5.5
11545,1381,2020-04-13 21:51:50,EN,57,Female,Up to 12 years of school,Up to 12 years of school,Retired,United States,no,California,Married/cohabiting,1.0,Yes,Life carries on with minor changes,3.0,0.0,,Program D,No,3.0,2.0,4.0,5.0,5.0,2.0,4.0,4.0,3.0,2.0,2.0,2.0,4.0,5.0,5.0,2.0,2.0,4.0,1.0,2.0,1.0,3.0,4.0,3.0,3.0,2.0,2.0,5.0,4.0,4.0,4.0,3.0,2.0,4.0,3.0,4.0,5.0,5.0,4.0,5.0,5.0,5.0,4.0,5.0,5.0,5.0,2.0,5.0,3.0,5.0,99.0,4.0,5.0,4.0,99.0,99.0,99.0,5.0,3.0,3.0,2.0,99.0,99.0,99.0,2.0,99.0,4.0,99.0,99.0,2.0,5.0,99.0,,5.0,5.0,5.0,5.0,5.0,5.0,4.0,5.0,5.0,5.0,2.0,5.0,4.0,5.0,4.0,2.0,5.0,5.0,2.0,4.0,3.0,3.0,5.0,5.0,1.0,4.0,,3.0,4.0,4.0,2.0,5.0,2.0,The economy is going to go to shit! People are going to lose everything and it will not be pretty,2.2,2.666667,3.333333,4.333333,5.0,4.333333,5.0,4.9
11549,633,2020-04-13 21:34:27,EN,35,Female,"College degree, bachelor, master",Some College or equivalent,Full time employed,United States,yes,Illinois,Married/cohabiting,1.0,Yes,Life carries on with minor changes,2.0,0.0,,Program D,No,4.0,3.0,4.0,3.0,2.0,3.0,3.0,2.0,3.0,3.0,1.0,1.0,1.0,8.0,9.0,6.0,6.0,7.0,7.0,8.0,7.0,5.0,5.0,5.0,5.0,5.0,0.0,5.0,5.0,5.0,2.0,5.0,5.0,5.0,3.0,4.0,5.0,5.0,2.0,4.0,5.0,2.0,5.0,4.0,4.0,5.0,2.0,5.0,5.0,3.0,99.0,6.0,2.0,2.0,4.0,2.0,99.0,6.0,5.0,6.0,6.0,6.0,5.0,4.0,6.0,2.0,5.0,2.0,4.0,2.0,6.0,5.0,,5.0,5.0,5.0,5.0,5.0,5.0,5.0,5.0,5.0,5.0,4.0,5.0,5.0,4.0,4.0,4.0,2.0,4.0,4.0,4.0,2.0,4.0,4.0,4.0,4.0,4.0,,3.0,3.0,5.0,5.0,6.0,3.0,,3.4,1.0,3.666667,5.0,3.666667,3.333333,5.0,5.0
11576,846,2020-04-13 20:20:43,EN,39,Female,"College degree, bachelor, master",College degree,Full time employed,United States,no,Illinois,Single,0.0,Yes,Life carries on with minor changes,,,Program A,,No,3.0,1.0,4.0,4.0,3.0,2.0,3.0,4.0,3.0,1.0,3.0,1.0,3.0,5.0,8.0,4.0,8.0,5.0,8.0,8.0,2.0,6.0,5.0,5.0,5.0,5.0,0.0,4.0,5.0,5.0,2.0,3.0,4.0,5.0,4.0,4.0,4.0,3.0,5.0,4.0,5.0,4.0,1.0,5.0,5.0,5.0,2.0,4.0,99.0,4.0,99.0,99.0,99.0,99.0,99.0,2.0,99.0,99.0,1.0,5.0,6.0,4.0,1.0,99.0,4.0,4.0,2.0,5.0,2.0,1.0,4.0,1.0,,5.0,5.0,5.0,5.0,5.0,5.0,5.0,5.0,5.0,5.0,2.0,4.0,5.0,2.0,4.0,4.0,2.0,2.0,5.0,5.0,4.0,2.0,4.0,2.0,2.0,4.0,,5.0,4.0,4.0,2.0,2.0,2.0,"I am an essential grocery store worker, so my situation in higher management gives me a unique perspective. I was never a social butterfly to begin with. I am required to work, so I get ""socializing"" done at work. I come home and enjoy being alone. But I always have! The difference for me is knowing I've likely been exposed to many positive covid cases and not known it. My hope is I remain healthy, but you never know. When I took this career path 22 years ago, I never thought I'd be putting my life on the line during a pandemic, but here we are.",2.4,2.333333,4.0,3.0,4.333333,5.333333,4.666667,5.0
11578,1231,2020-04-13 20:26:21,EN,52,Female,"College degree, bachelor, master",Up to 12 years of school,Full time employed,United States,no,Illinois,Married/cohabiting,0.0,Yes,Isolated,1.0,0.0,,Program D,No,2.0,2.0,3.0,4.0,5.0,1.0,4.0,4.0,3.0,1.0,1.0,1.0,1.0,8.0,10.0,6.0,9.0,9.0,7.0,5.0,6.0,5.0,6.0,5.0,6.0,6.0,4.0,6.0,6.0,6.0,3.0,3.0,2.0,2.0,3.0,4.0,5.0,4.0,3.0,4.0,5.0,2.0,4.0,5.0,4.0,5.0,3.0,5.0,2.0,2.0,99.0,4.0,2.0,2.0,2.0,2.0,99.0,4.0,2.0,4.0,4.0,4.0,3.0,2.0,99.0,2.0,4.0,2.0,2.0,2.0,4.0,3.0,,5.0,5.0,5.0,5.0,5.0,5.0,5.0,5.0,5.0,5.0,2.0,5.0,5.0,5.0,4.0,4.0,2.0,2.0,5.0,4.0,4.0,3.0,3.0,4.0,2.0,2.0,,3.0,2.0,2.0,2.0,2.0,2.0,,1.9,1.0,2.666667,4.333333,3.666667,4.0,4.666667,5.0
11588,224,2020-04-14 19:37:44,EN,37,Female,"Some College, short continuing education or equivalent",Some College or equivalent,Self-employed,United States,no,Massachusetts,Married/cohabiting,2.0,Yes,Life carries on with minor changes,3.0,0.0,,Program D,No,3.0,2.0,4.0,3.0,2.0,2.0,3.0,3.0,3.0,2.0,1.0,2.0,2.0,,,,,,,,,,,,,,,,,,,,,,,,,,,,,,,,,,,,,,,,,,,,,,,,,,,,,,,,,,,,,,,,,,,,,,,,,,,,,,,,,,,,,,,,,,,,,,,2.9,1.666667,,,,,,
11592,1992,2020-04-14 19:59:38,EN,58,Female,"Some College, short continuing education or equivalent",Some College or equivalent,Not employed,United States,no,IL,Married/cohabiting,1.0,No,Isolated,2.0,0.0,,Program D,Yes,3.0,3.0,4.0,4.0,4.0,3.0,4.0,3.0,4.0,3.0,3.0,4.0,4.0,2.0,1.0,3.0,5.0,4.0,3.0,4.0,5.0,6.0,6.0,6.0,6.0,6.0,5.0,5.0,6.0,6.0,5.0,2.0,2.0,,5.0,6.0,2.0,2.0,4.0,5.0,6.0,5.0,1.0,5.0,6.0,6.0,2.0,6.0,,,,,,,,,,,,,,,,,,,,,,,,,,,,,,,,,,,,,,,,,,,,,,,,,,,,,,,,,,,,2.9,3.666667,3.0,2.333333,5.333333,5.666667,5.666667,
11598,133,2020-04-14 19:04:08,EN,20,Female,"Some College, short continuing education or equivalent",College degree,Student,United States,no,illinois,Single,0.0,Not sure,Life carries on with minor changes,3.0,1.0,,Program C,,,,,,,,,,,,,,,,,,,,,,,,,,,,,,,,,,,,,,,,,,,,,,,,,,,,,,,,,,,,,,,,,,,,,,,,,,,,,,,,,,,,,,,,,,,,,,,,,,,,,,,,,,,,,,,,,,,,
11599,880,2020-04-13 19:10:31,EN,28,Female,"College degree, bachelor, master",College degree,Full time employed,United States,no,Illinois,Single,0.0,No,Life carries on with minor changes,1.0,0.0,Program A,,No,4.0,3.0,4.0,5.0,3.0,2.0,3.0,3.0,3.0,1.0,1.0,2.0,1.0,6.0,9.0,6.0,5.0,8.0,8.0,8.0,8.0,5.0,6.0,5.0,5.0,5.0,4.0,5.0,5.0,5.0,2.0,1.0,2.0,4.0,5.0,4.0,4.0,2.0,4.0,5.0,5.0,4.0,2.0,5.0,6.0,6.0,2.0,5.0,99.0,3.0,99.0,99.0,2.0,6.0,99.0,2.0,99.0,5.0,2.0,6.0,5.0,5.0,99.0,2.0,2.0,2.0,2.0,4.0,4.0,2.0,6.0,99.0,My significant other and I are both essential workers. Had to cancel our wedding due to Covid 19. Presently our greatest stressor aside from working closely alongside others right now.,6.0,5.0,5.0,6.0,6.0,5.0,6.0,6.0,5.0,6.0,4.0,5.0,6.0,3.0,5.0,5.0,2.0,2.0,5.0,5.0,4.0,5.0,5.0,5.0,3.0,3.0,,5.0,5.0,2.0,5.0,5.0,1.0,Wedding cancellation and postponement.,2.7,1.333333,4.0,3.0,4.666667,5.333333,5.333333,5.6
11607,764,2020-04-13 18:48:07,EN,53,Female,Up to 12 years of school,Up to 6 years of school,Part time employed,United States,no,Illinois,Married/cohabiting,0.0,Not sure,Isolated,4.0,0.0,,Program D,No,4.0,4.0,4.0,3.0,2.0,3.0,3.0,3.0,4.0,3.0,3.0,2.0,4.0,7.0,8.0,5.0,6.0,6.0,4.0,8.0,5.0,5.0,5.0,5.0,5.0,5.0,3.0,6.0,6.0,6.0,2.0,1.0,2.0,5.0,4.0,4.0,4.0,3.0,4.0,4.0,5.0,1.0,2.0,5.0,5.0,4.0,3.0,5.0,5.0,5.0,5.0,5.0,4.0,4.0,2.0,2.0,2.0,5.0,5.0,5.0,5.0,6.0,,5.0,4.0,5.0,5.0,4.0,3.0,3.0,5.0,6.0,,4.0,5.0,4.0,5.0,5.0,4.0,5.0,5.0,4.0,5.0,4.0,2.0,5.0,2.0,5.0,5.0,1.0,,5.0,4.0,4.0,5.0,4.0,4.0,4.0,3.0,,4.0,5.0,5.0,4.0,5.0,2.0,,3.5,3.0,4.0,3.333333,3.333333,5.0,4.333333,4.6
11611,125,2020-04-14 18:27:03,EN,28,Female,"College degree, bachelor, master",College degree,Part time employed,United States,no,California,Married/cohabiting,0.0,Yes,Isolated,1.0,0.0,Program A,,,,,,,,,,,,,,,,,,,,,,,,,,,,,,,,,,,,,,,,,,,,,,,,,,,,,,,,,,,,,,,,,,,,,,,,,,,,,,,,,,,,,,,,,,,,,,,,,,,,,,,,,,,,,,,,,,,,,
11619,185,2020-04-14 18:16:40,EN,23,Female,"Some College, short continuing education or equivalent",Up to 12 years of school,Self-employed,United States,no,IL,Single,0.0,Yes,Isolated,2.0,1.0,,Program C,No,4.0,4.0,5.0,2.0,1.0,4.0,2.0,2.0,4.0,3.0,4.0,4.0,4.0,,,,,,,,,,,,,,,,,,,,,,,,,,,,,,,,,,,,,,,,,,,,,,,,,,,,,,,,,,,,,,,,,,,,,,,,,,,,,,,,,,,,,,,,,,,,,,,4.1,4.0,,,,,,
11642,2070,2020-04-13 18:07:12,EN,61,Male,PhD/Doctorate,Some College or equivalent,Full time employed,United States,no,Michigan,Married/cohabiting,1.0,Yes,Life carries on with minor changes,2.0,0.0,,Program D,No,2.0,2.0,3.0,4.0,3.0,2.0,4.0,4.0,3.0,2.0,2.0,3.0,3.0,6.0,8.0,6.0,7.0,9.0,7.0,10.0,0.0,6.0,6.0,6.0,6.0,6.0,3.0,6.0,6.0,6.0,1.0,6.0,5.0,5.0,2.0,5.0,6.0,5.0,2.0,5.0,6.0,4.0,1.0,5.0,6.0,5.0,1.0,6.0,5.0,5.0,5.0,5.0,5.0,5.0,5.0,1.0,99.0,5.0,2.0,6.0,6.0,6.0,5.0,5.0,2.0,5.0,4.0,1.0,6.0,2.0,5.0,1.0,,6.0,6.0,6.0,6.0,6.0,5.0,6.0,6.0,5.0,6.0,6.0,6.0,6.0,2.0,6.0,2.0,2.0,2.0,5.0,6.0,6.0,6.0,6.0,6.0,6.0,6.0,,5.0,6.0,5.0,5.0,5.0,6.0,"Accurate reporting of facts from  local Government officials in my and other states has provided me more security than what the current US Federal Executive Branch has to been reporting to date.  I feel the US  President mislead the public during the early stages of the pandemic and did not give clear and sound advice geared to protect the health of the public.  I feel most of the state governments responded appropriately and took the best possible actions.  These governors of these states give me more assurance and  comfort that appropriate steps are being taken to protect the health and welfare of my family, friends,  colleagues and the public.",2.3,2.666667,3.0,5.333333,5.0,5.666667,5.666667,5.8
11649,216,2020-04-14 17:25:48,EN,20,Female,"Some College, short continuing education or equivalent",Up to 12 years of school,Student,United States,no,IL,Single,0.0,Yes,Isolated,1.0,0.0,,Program D,Not sure,4.0,3.0,5.0,3.0,3.0,3.0,3.0,1.0,2.0,4.0,2.0,1.0,3.0,,,,,,,,,,,,,,,,,,,,,,,,,,,,,,,,,,,,,,,,,,,,,,,,,,,,,,,,,,,,,,,,,,,,,,,,,,,,,,,,,,,,,,,,,,,,,,,3.5,2.0,,,,,,
11662,620,2020-04-13 17:16:30,EN,21,Female,"Some College, short continuing education or equivalent",College degree,Part time employed,United States,yes,Iowa,Single,0.0,Yes,Isolated,1.0,0.0,,Program C,No,3.0,4.0,4.0,3.0,3.0,4.0,3.0,3.0,4.0,4.0,4.0,4.0,4.0,7.0,5.0,2.0,5.0,3.0,1.0,6.0,2.0,6.0,6.0,6.0,6.0,6.0,3.0,6.0,5.0,4.0,4.0,4.0,2.0,5.0,3.0,4.0,5.0,4.0,2.0,5.0,4.0,4.0,3.0,5.0,4.0,6.0,1.0,5.0,6.0,5.0,99.0,5.0,5.0,6.0,4.0,5.0,99.0,6.0,5.0,5.0,5.0,5.0,6.0,6.0,4.0,6.0,5.0,4.0,3.0,3.0,4.0,99.0,,5.0,5.0,5.0,4.0,5.0,4.0,4.0,5.0,5.0,5.0,4.0,5.0,5.0,4.0,4.0,4.0,5.0,5.0,6.0,4.0,3.0,3.0,5.0,4.0,5.0,4.0,,5.0,4.0,4.0,5.0,5.0,3.0,,3.5,4.0,3.666667,4.666667,4.333333,4.333333,5.666667,4.7
11666,1035,2020-04-13 17:13:49,EN,46,Female,"College degree, bachelor, master",Some College or equivalent,Full time employed,United States,no,Illinois,Married/cohabiting,3.0,Yes,Isolated,1.0,1.0,,Program C,No,3.0,2.0,4.0,3.0,3.0,3.0,4.0,3.0,3.0,3.0,3.0,3.0,4.0,7.0,8.0,8.0,8.0,8.0,8.0,8.0,9.0,4.0,6.0,4.0,3.0,3.0,5.0,5.0,5.0,4.0,2.0,3.0,4.0,,4.0,3.0,4.0,2.0,4.0,3.0,6.0,5.0,4.0,,5.0,5.0,2.0,5.0,4.0,5.0,5.0,5.0,4.0,5.0,5.0,4.0,2.0,5.0,6.0,6.0,6.0,6.0,4.0,5.0,5.0,4.0,5.0,5.0,4.0,3.0,5.0,4.0,,6.0,6.0,6.0,6.0,6.0,5.0,6.0,6.0,6.0,6.0,4.0,5.0,5.0,2.0,5.0,4.0,2.0,2.0,5.0,2.0,5.0,5.0,4.0,5.0,5.0,4.0,,6.0,5.0,5.0,2.0,6.0,3.0,General uncertainty,2.9,3.333333,4.0,3.0,4.666667,4.0,5.0,5.9
11672,1616,2020-04-13 17:15:04,EN,77,Female,"Some College, short continuing education or equivalent",Some College or equivalent,Retired,United States,no,CA,Married/cohabiting,2.0,Yes,Life carries on with minor changes,1.0,0.0,,Program D,No,3.0,2.0,2.0,5.0,5.0,2.0,4.0,4.0,2.0,1.0,2.0,2.0,2.0,8.0,9.0,3.0,7.0,8.0,9.0,6.0,4.0,6.0,6.0,6.0,6.0,6.0,2.0,6.0,6.0,6.0,1.0,6.0,2.0,4.0,3.0,5.0,5.0,2.0,5.0,5.0,5.0,3.0,2.0,3.0,4.0,5.0,2.0,6.0,99.0,99.0,99.0,99.0,4.0,5.0,5.0,3.0,99.0,5.0,2.0,5.0,5.0,5.0,99.0,5.0,2.0,4.0,5.0,99.0,4.0,5.0,5.0,5.0,,5.0,6.0,6.0,6.0,6.0,6.0,6.0,6.0,5.0,6.0,5.0,1.0,6.0,1.0,5.0,2.0,2.0,2.0,5.0,5.0,5.0,5.0,5.0,5.0,5.0,5.0,,2.0,1.0,2.0,2.0,1.0,4.0,I,1.8,2.0,3.0,3.0,4.333333,4.0,5.333333,5.8
11677,756,2020-04-13 16:57:57,EN,19,Female,"Some College, short continuing education or equivalent",College degree,Part time employed,United States,no,Michigan,Single,0.0,Yes,Life carries on with minor changes,2.0,0.0,Program B,,No,3.0,3.0,3.0,4.0,3.0,2.0,2.0,4.0,4.0,2.0,3.0,2.0,3.0,4.0,7.0,7.0,8.0,7.0,7.0,8.0,5.0,5.0,5.0,5.0,6.0,6.0,3.0,6.0,6.0,6.0,6.0,4.0,3.0,5.0,2.0,5.0,5.0,4.0,4.0,4.0,6.0,5.0,2.0,5.0,5.0,5.0,2.0,5.0,2.0,5.0,99.0,6.0,3.0,1.0,4.0,5.0,99.0,4.0,6.0,6.0,2.0,6.0,4.0,3.0,3.0,2.0,4.0,4.0,1.0,1.0,6.0,6.0,,6.0,6.0,5.0,5.0,6.0,4.0,6.0,6.0,6.0,6.0,5.0,4.0,5.0,,5.0,4.0,5.0,4.0,5.0,5.0,4.0,5.0,5.0,5.0,4.0,5.0,,6.0,6.0,6.0,2.0,1.0,1.0,,2.8,2.666667,3.0,4.0,5.0,5.0,5.0,5.6
11714,549,2020-04-14 16:09:14,EN,52,Female,Up to 12 years of school,,Full time employed,United States,no,Illinois,Married/cohabiting,1.0,Yes,Isolated,2.0,0.0,,,,3.0,3.0,4.0,4.0,3.0,3.0,3.0,3.0,2.0,3.0,3.0,4.0,4.0,2.0,3.0,3.0,3.0,6.0,4.0,5.0,2.0,5.0,5.0,5.0,5.0,5.0,0.0,5.0,5.0,5.0,5.0,5.0,2.0,5.0,5.0,5.0,5.0,5.0,4.0,2.0,5.0,5.0,2.0,5.0,5.0,5.0,2.0,5.0,,,,,,,,,,,,,,,,,,,,,,,,,,,,,,,,,,,,,,,,,,,,,,,,,,,,,,,,,,,,2.9,3.666667,4.0,4.333333,4.0,5.0,5.0,
11718,2004,2020-04-13 16:28:20,EN,47,Female,"College degree, bachelor, master",Up to 9 years of school,Part time employed,United States,no,Illinois,Married/cohabiting,3.0,Yes,Isolated,1.0,1.0,,,,2.0,2.0,4.0,5.0,3.0,2.0,3.0,4.0,4.0,3.0,4.0,3.0,4.0,7.0,8.0,6.0,8.0,8.0,7.0,7.0,5.0,5.0,5.0,5.0,5.0,5.0,2.0,6.0,5.0,5.0,2.0,3.0,3.0,4.0,2.0,5.0,5.0,5.0,4.0,3.0,5.0,2.0,1.0,5.0,5.0,3.0,2.0,5.0,2.0,5.0,2.0,2.0,2.0,5.0,2.0,5.0,4.0,5.0,3.0,6.0,5.0,5.0,2.0,5.0,2.0,4.0,4.0,5.0,4.0,2.0,5.0,2.0,,5.0,3.0,5.0,5.0,5.0,5.0,5.0,5.0,5.0,5.0,4.0,5.0,5.0,5.0,4.0,5.0,1.0,1.0,5.0,5.0,4.0,5.0,5.0,5.0,2.0,4.0,,5.0,5.0,5.0,3.0,5.0,5.0,My work in healthcare puts me at increased risk for contracting the virus. I worry about bringing this home to my family.,2.6,3.666667,2.666667,4.333333,3.333333,5.333333,4.333333,4.8
11720,902,2020-04-13 16:08:28,EN,40,Female,"College degree, bachelor, master",Some College or equivalent,Full time employed,United States,no,IL,Married/cohabiting,1.0,No,Life carries on with minor changes,,,,Program D,No,3.0,2.0,3.0,4.0,3.0,2.0,3.0,4.0,4.0,1.0,4.0,4.0,3.0,4.0,9.0,8.0,9.0,8.0,8.0,8.0,7.0,6.0,6.0,6.0,5.0,5.0,6.0,5.0,5.0,5.0,2.0,3.0,4.0,4.0,2.0,4.0,5.0,5.0,2.0,5.0,4.0,4.0,2.0,5.0,5.0,5.0,2.0,5.0,2.0,2.0,99.0,99.0,4.0,4.0,4.0,4.0,4.0,4.0,4.0,5.0,5.0,6.0,2.0,4.0,2.0,4.0,4.0,2.0,2.0,1.0,4.0,2.0,,6.0,6.0,6.0,6.0,6.0,6.0,6.0,6.0,6.0,6.0,4.0,4.0,6.0,1.0,5.0,5.0,1.0,1.0,4.0,3.0,4.0,4.0,4.0,5.0,5.0,5.0,,5.0,2.0,4.0,5.0,2.0,2.0,,2.5,3.666667,3.0,5.0,4.333333,5.0,5.0,6.0
11728,1081,2020-04-13 16:06:12,EN,48,Female,"College degree, bachelor, master",College degree,Not employed,United States,no,Texas,Married/cohabiting,1.0,Yes,Life carries on with minor changes,2.0,0.0,,Program D,No,1.0,2.0,3.0,5.0,4.0,3.0,4.0,3.0,1.0,1.0,2.0,1.0,2.0,7.0,10.0,7.0,9.0,8.0,9.0,8.0,3.0,5.0,6.0,5.0,6.0,6.0,3.0,6.0,6.0,6.0,1.0,5.0,5.0,4.0,2.0,6.0,5.0,5.0,4.0,6.0,6.0,6.0,2.0,6.0,6.0,5.0,4.0,6.0,3.0,1.0,3.0,2.0,4.0,2.0,2.0,4.0,99.0,4.0,2.0,5.0,5.0,5.0,1.0,1.0,3.0,2.0,2.0,1.0,2.0,1.0,4.0,1.0,,6.0,5.0,5.0,6.0,6.0,6.0,6.0,6.0,6.0,6.0,5.0,4.0,6.0,2.0,6.0,5.0,2.0,2.0,6.0,6.0,4.0,6.0,6.0,5.0,6.0,5.0,,2.0,5.0,2.0,4.0,5.0,4.0,No,1.9,1.666667,2.333333,4.333333,6.0,5.666667,4.666667,5.8
11730,834,2020-04-14 16:01:13,EN,40,Female,"College degree, bachelor, master",Some College or equivalent,Full time employed,United States,no,Illinois,Married/cohabiting,3.0,Yes,Life carries on with minor changes,1.0,3.0,Program A,,Yes,2.0,2.0,3.0,4.0,5.0,2.0,3.0,5.0,3.0,2.0,2.0,2.0,4.0,5.0,9.0,5.0,9.0,9.0,9.0,9.0,8.0,6.0,6.0,6.0,6.0,5.0,8.0,6.0,6.0,6.0,6.0,3.0,2.0,5.0,4.0,5.0,4.0,4.0,2.0,5.0,5.0,2.0,2.0,5.0,5.0,6.0,2.0,5.0,2.0,5.0,5.0,5.0,2.0,5.0,4.0,2.0,5.0,6.0,5.0,6.0,6.0,5.0,6.0,5.0,2.0,2.0,5.0,2.0,5.0,4.0,6.0,4.0,,,,,,,,,,,,,,,,,,,,,,,,,,,,,,,,,,,,2.1,2.666667,3.666667,4.333333,4.0,5.0,5.333333,
11731,947,2020-04-14 16:02:22,EN,58,Female,"Some College, short continuing education or equivalent",Up to 9 years of school,Full time employed,United States,no,IL,Divorced/widowed,0.0,Yes,Isolated,2.0,0.0,,,,3.0,3.0,3.0,3.0,3.0,2.0,3.0,3.0,3.0,2.0,4.0,3.0,3.0,7.0,7.0,5.0,5.0,5.0,5.0,8.0,2.0,6.0,5.0,4.0,5.0,5.0,2.0,5.0,5.0,4.0,4.0,2.0,2.0,5.0,2.0,4.0,5.0,4.0,4.0,4.0,4.0,3.0,1.0,5.0,5.0,4.0,2.0,4.0,3.0,5.0,5.0,2.0,5.0,5.0,5.0,6.0,99.0,6.0,5.0,6.0,6.0,3.0,5.0,5.0,5.0,6.0,5.0,5.0,3.0,3.0,5.0,99.0,,5.0,5.0,5.0,5.0,5.0,5.0,5.0,4.0,4.0,4.0,4.0,2.0,5.0,3.0,3.0,4.0,2.0,1.0,4.0,4.0,4.0,5.0,4.0,4.0,5.0,3.0,,2.0,5.0,5.0,4.0,5.0,3.0,,2.8,3.333333,3.333333,4.0,3.666667,5.333333,4.333333,4.7
11732,503,2020-04-14 15:54:35,EN,42,Female,"College degree, bachelor, master",College degree,Self-employed,United States,no,Texas,Married/cohabiting,2.0,Yes,Isolated,1.0,0.0,,Program D,No,4.0,4.0,4.0,3.0,2.0,4.0,3.0,1.0,4.0,3.0,5.0,5.0,5.0,3.0,8.0,4.0,5.0,5.0,6.0,7.0,4.0,5.0,6.0,5.0,6.0,6.0,0.0,5.0,6.0,6.0,4.0,2.0,3.0,2.0,5.0,5.0,5.0,4.0,2.0,5.0,5.0,5.0,2.0,5.0,6.0,5.0,2.0,5.0,5.0,2.0,6.0,4.0,3.0,4.0,1.0,1.0,1.0,5.0,5.0,5.0,6.0,6.0,2.0,1.0,3.0,5.0,6.0,5.0,3.0,1.0,2.0,1.0,,,,,,,,,,,,,,,,,,,,,,,,,,,,,,,,,,,,3.8,5.0,3.0,4.666667,5.0,5.333333,5.0,
11760,986,2020-04-13 15:36:23,EN,51,Female,"Some College, short continuing education or equivalent",Up to 12 years of school,Full time employed,United States,no,Mn,Married/cohabiting,0.0,Yes,Life carries on as usual,1.0,,Program A,,No,1.0,1.0,1.0,5.0,5.0,1.0,5.0,5.0,1.0,1.0,1.0,1.0,1.0,7.0,8.0,7.0,9.0,7.0,9.0,8.0,9.0,2.0,4.0,2.0,2.0,2.0,5.0,5.0,4.0,4.0,3.0,4.0,1.0,2.0,5.0,6.0,4.0,5.0,3.0,3.0,4.0,3.0,3.0,4.0,5.0,5.0,1.0,5.0,1.0,2.0,99.0,99.0,1.0,2.0,99.0,2.0,99.0,2.0,2.0,3.0,3.0,3.0,99.0,2.0,3.0,1.0,2.0,2.0,2.0,2.0,2.0,1.0,,5.0,5.0,5.0,5.0,5.0,5.0,5.0,5.0,5.0,5.0,5.0,4.0,4.0,5.0,4.0,2.0,1.0,1.0,5.0,4.0,2.0,4.0,6.0,4.0,3.0,4.0,,3.0,3.0,1.0,2.0,1.0,3.0,,1.0,1.0,2.666667,4.333333,3.333333,4.333333,5.333333,5.0
11768,1593,2020-04-13 15:41:50,EN,46,Female,"College degree, bachelor, master",Up to 12 years of school,Part time employed,United States,no,Illinois,Married/cohabiting,3.0,Yes,Life carries on with minor changes,1.0,1.0,Program A,,No,3.0,3.0,3.0,4.0,3.0,1.0,4.0,4.0,3.0,1.0,1.0,2.0,3.0,8.0,9.0,6.0,7.0,6.0,8.0,6.0,6.0,5.0,6.0,6.0,6.0,5.0,6.0,5.0,6.0,6.0,4.0,6.0,5.0,5.0,5.0,5.0,5.0,5.0,3.0,5.0,5.0,5.0,1.0,5.0,5.0,5.0,1.0,5.0,3.0,4.0,3.0,4.0,4.0,4.0,3.0,2.0,2.0,6.0,1.0,6.0,5.0,4.0,4.0,2.0,2.0,1.0,2.0,2.0,4.0,2.0,4.0,4.0,,6.0,6.0,6.0,6.0,6.0,6.0,6.0,6.0,5.0,6.0,5.0,2.0,6.0,5.0,6.0,6.0,2.0,5.0,6.0,5.0,6.0,6.0,5.0,6.0,6.0,6.0,,5.0,5.0,5.0,5.0,5.0,5.0,,2.3,2.0,4.0,4.666667,5.0,5.333333,5.333333,5.9
11773,518,2020-04-14 15:18:50,EN,26,Female,"College degree, bachelor, master",PhD/Doctorate,Part time employed,United States,yes,Pennsylvania,Married/cohabiting,0.0,Yes,Isolated,4.0,0.0,,Program D,Not sure,3.0,,3.0,,3.0,2.0,,,,,,,,,,,,,,,,,,,,,,,,,,,,,,,,,,,,,,,,,,,,,,,,,,,,,,,,,,,,,,,,,,,,,,,,,,,,,,,,,,,,,,,,,,,,,,,,,,,,,,2.75,,,,,,,
11790,738,2020-04-13 15:09:59,EN,20,Female,"Some College, short continuing education or equivalent",Some College or equivalent,Full time employed,United States,no,Illinois,Single,0.0,Yes,Isolated,5.0,0.0,,Program D,Not sure,4.0,3.0,4.0,3.0,2.0,4.0,3.0,3.0,4.0,3.0,4.0,3.0,5.0,6.0,5.0,6.0,8.0,5.0,5.0,4.0,7.0,4.0,5.0,4.0,6.0,5.0,4.0,5.0,4.0,4.0,4.0,3.0,2.0,5.0,5.0,2.0,5.0,5.0,2.0,4.0,5.0,2.0,3.0,4.0,4.0,3.0,4.0,4.0,5.0,99.0,99.0,4.0,3.0,5.0,99.0,6.0,99.0,5.0,5.0,5.0,6.0,6.0,99.0,6.0,6.0,6.0,5.0,5.0,5.0,4.0,5.0,3.0,,6.0,5.0,5.0,5.0,6.0,4.0,6.0,5.0,5.0,6.0,3.0,5.0,6.0,2.0,5.0,6.0,2.0,2.0,5.0,5.0,3.0,4.0,2.0,5.0,4.0,4.0,,5.0,5.0,5.0,5.0,5.0,2.0,,3.5,4.0,5.0,5.0,3.666667,4.0,3.333333,5.3
11805,1078,2020-04-14 15:08:31,EN,38,Female,"College degree, bachelor, master",Up to 9 years of school,Full time employed,United States,no,MA,Married/cohabiting,1.0,Yes,Isolated,1.0,0.0,,Program D,No,3.0,4.0,4.0,4.0,4.0,2.0,3.0,4.0,3.0,2.0,1.0,1.0,4.0,5.0,8.0,,7.0,5.0,7.0,10.0,,6.0,6.0,6.0,6.0,5.0,,6.0,6.0,6.0,5.0,2.0,6.0,6.0,5.0,4.0,4.0,4.0,5.0,4.0,6.0,6.0,3.0,4.0,5.0,5.0,5.0,5.0,5.0,5.0,99.0,5.0,6.0,6.0,6.0,1.0,99.0,6.0,5.0,6.0,6.0,6.0,6.0,6.0,99.0,4.0,5.0,6.0,6.0,1.0,6.0,6.0,,6.0,6.0,6.0,6.0,6.0,6.0,6.0,6.0,6.0,6.0,5.0,6.0,6.0,6.0,6.0,6.0,6.0,6.0,6.0,6.0,6.0,6.0,4.0,6.0,6.0,5.0,,6.0,6.0,6.0,4.0,6.0,1.0,,2.7,2.0,4.666667,3.333333,5.333333,4.333333,4.0,6.0
11861,409,2020-04-14 14:31:50,EN,19,Female,"Some College, short continuing education or equivalent",College degree,Student,United States,no,illinois,Single,0.0,Yes,Isolated,2.0,0.0,,Program D,No,4.0,5.0,3.0,4.0,1.0,1.0,4.0,4.0,5.0,3.0,1.0,2.0,5.0,6.0,10.0,3.0,9.0,9.0,9.0,9.0,6.0,6.0,6.0,6.0,6.0,6.0,10.0,4.0,4.0,4.0,5.0,4.0,2.0,3.0,5.0,6.0,6.0,6.0,2.0,6.0,5.0,6.0,5.0,6.0,5.0,5.0,3.0,6.0,6.0,6.0,99.0,6.0,2.0,6.0,5.0,99.0,99.0,6.0,99.0,4.0,5.0,5.0,6.0,6.0,5.0,6.0,6.0,99.0,1.0,2.0,6.0,6.0,,5.0,5.0,5.0,5.0,5.0,5.0,5.0,5.0,5.0,5.0,5.0,5.0,5.0,5.0,5.0,5.0,4.0,5.0,5.0,5.0,5.0,5.0,5.0,5.0,4.0,5.0,,5.0,5.0,5.0,5.0,5.0,5.0,,3.2,2.666667,3.0,5.666667,5.666667,4.333333,5.0,5.0
11880,106,2020-04-14 14:17:20,EN,62,Female,"College degree, bachelor, master",Some College or equivalent,Retired,United States,no,Illinois,Married/cohabiting,0.0,No,Isolated,2.0,0.0,,,,,,,,,,,,,,,,,,,,,,,,,,,,,,,,,,,,,,,,,,,,,,,,,,,,,,,,,,,,,,,,,,,,,,,,,,,,,,,,,,,,,,,,,,,,,,,,,,,,,,,,,,,,,,,,,,,,,,
11881,684,2020-04-13 14:26:46,EN,50,Female,"College degree, bachelor, master",College degree,Full time employed,United States,no,,Married/cohabiting,,Yes,Isolated,2.0,0.0,Program B,,No,4.0,3.0,5.0,3.0,2.0,4.0,3.0,2.0,5.0,3.0,5.0,2.0,5.0,7.0,9.0,3.0,5.0,7.0,7.0,7.0,6.0,6.0,6.0,6.0,6.0,6.0,6.0,6.0,5.0,5.0,5.0,4.0,2.0,5.0,2.0,4.0,4.0,6.0,2.0,6.0,6.0,6.0,3.0,5.0,5.0,3.0,4.0,6.0,5.0,5.0,5.0,6.0,6.0,6.0,1.0,4.0,99.0,6.0,5.0,5.0,5.0,5.0,5.0,4.0,5.0,6.0,5.0,6.0,2.0,2.0,6.0,6.0,"Not knowing when this will end, extreme concern for others and breakdown of the economy, no travel",6.0,6.0,6.0,6.0,6.0,6.0,6.0,6.0,6.0,6.0,5.0,5.0,5.0,5.0,5.0,6.0,2.0,2.0,5.0,4.0,2.0,5.0,2.0,3.0,2.0,5.0,,5.0,2.0,2.0,4.0,6.0,2.0,"Concern over financial security for the country, people being out of work, no social activities, worry about a mob mentality taking over, Trump's constant bragging",3.8,4.0,3.333333,5.0,6.0,4.666667,4.0,6.0
11976,168,2020-04-14 13:38:05,EN,58,Female,Up to 12 years of school,Up to 12 years of school,Full time employed,United States,no,ky,Married/cohabiting,2.0,Yes,Life carries on with minor changes,2.0,0.0,,,,,,,,,,,,,,,,,,,,,,,,,,,,,,,,,,,,,,,,,,,,,,,,,,,,,,,,,,,,,,,,,,,,,,,,,,,,,,,,,,,,,,,,,,,,,,,,,,,,,,,,,,,,,,,,,,,,,,
12031,406,2020-04-13 13:22:33,EN,20,Male,"College degree, bachelor, master",College degree,Student,United States,no,IL,Single,0.0,No,Isolated,4.0,1.0,,Program D,No,2.0,3.0,4.0,5.0,3.0,2.0,4.0,5.0,3.0,2.0,4.0,4.0,4.0,6.0,8.0,7.0,9.0,9.0,10.0,10.0,10.0,2.0,3.0,3.0,5.0,5.0,5.0,5.0,5.0,5.0,3.0,4.0,2.0,2.0,3.0,5.0,4.0,4.0,4.0,5.0,4.0,5.0,2.0,5.0,5.0,5.0,4.0,5.0,5.0,5.0,,5.0,5.0,5.0,5.0,99.0,4.0,6.0,5.0,4.0,99.0,99.0,5.0,4.0,99.0,2.0,5.0,4.0,2.0,2.0,2.0,2.0,,,,,,,,,,,,,,,,,,,,,,,,,,,,,,,,,,,,2.3,4.0,2.333333,3.666667,4.666667,5.0,4.333333,
12032,877,2020-04-13 13:29:55,EN,48,Female,"Some College, short continuing education or equivalent",Up to 6 years of school,Full time employed,United States,yes,Illinois,Married/cohabiting,4.0,Yes,Isolated,4.0,0.0,Program A,,No,2.0,3.0,2.0,5.0,5.0,2.0,4.0,4.0,2.0,1.0,3.0,3.0,4.0,6.0,9.0,7.0,9.0,9.0,9.0,6.0,9.0,2.0,3.0,3.0,2.0,2.0,5.0,6.0,6.0,5.0,1.0,4.0,1.0,2.0,1.0,6.0,5.0,2.0,5.0,2.0,4.0,1.0,1.0,5.0,6.0,6.0,1.0,6.0,4.0,99.0,5.0,4.0,2.0,6.0,5.0,2.0,99.0,5.0,4.0,5.0,4.0,5.0,99.0,5.0,5.0,4.0,5.0,3.0,4.0,1.0,6.0,5.0,,6.0,5.0,6.0,5.0,6.0,5.0,5.0,6.0,5.0,6.0,5.0,5.0,6.0,4.0,5.0,5.0,1.0,1.0,5.0,5.0,4.0,6.0,5.0,5.0,3.0,5.0,,5.0,5.0,5.0,3.0,5.0,3.0,,1.8,3.333333,1.333333,3.0,2.333333,5.666667,6.0,5.5
12035,1096,2020-04-13 13:32:38,EN,54,Female,"Some College, short continuing education or equivalent",Up to 6 years of school,Part time employed,United States,no,Illinois,Married/cohabiting,0.0,No,Life carries on with minor changes,2.0,0.0,,Program C,No,4.0,5.0,3.0,4.0,4.0,3.0,3.0,4.0,4.0,2.0,2.0,2.0,3.0,7.0,9.0,8.0,9.0,8.0,9.0,7.0,9.0,6.0,6.0,6.0,6.0,6.0,5.0,6.0,6.0,6.0,5.0,4.0,4.0,6.0,4.0,4.0,6.0,6.0,1.0,5.0,5.0,6.0,2.0,4.0,6.0,5.0,2.0,6.0,6.0,4.0,4.0,6.0,5.0,5.0,3.0,3.0,99.0,6.0,5.0,5.0,6.0,4.0,5.0,5.0,5.0,3.0,4.0,5.0,99.0,99.0,6.0,4.0,,6.0,5.0,6.0,6.0,6.0,6.0,6.0,6.0,5.0,6.0,6.0,6.0,6.0,4.0,6.0,6.0,2.0,1.0,5.0,5.0,4.0,6.0,4.0,5.0,4.0,6.0,,5.0,3.0,1.0,4.0,6.0,1.0,,3.0,2.333333,4.333333,6.0,5.333333,5.0,5.333333,5.8
12161,1049,2020-04-13 12:36:25,EN,66,Female,Up to 12 years of school,,Retired,United States,no,Calif,Divorced/widowed,0.0,Yes,Life carries on with minor changes,,,,Program D,No,2.0,3.0,3.0,5.0,3.0,1.0,4.0,5.0,3.0,1.0,2.0,3.0,3.0,3.0,7.0,1.0,3.0,3.0,7.0,1.0,4.0,6.0,6.0,,5.0,5.0,1.0,5.0,6.0,5.0,1.0,1.0,2.0,5.0,2.0,5.0,2.0,2.0,6.0,4.0,5.0,4.0,4.0,4.0,5.0,5.0,1.0,5.0,99.0,99.0,6.0,99.0,6.0,6.0,4.0,99.0,99.0,6.0,5.0,5.0,6.0,6.0,99.0,99.0,1.0,4.0,6.0,99.0,4.0,2.0,6.0,1.0,,5.0,5.0,5.0,4.0,5.0,5.0,4.0,6.0,5.0,5.0,1.0,5.0,5.0,5.0,5.0,5.0,5.0,5.0,5.0,5.0,5.0,5.0,5.0,5.0,6.0,3.0,,5.0,6.0,2.0,2.0,2.0,6.0,,2.0,2.666667,3.0,1.666667,4.333333,4.0,5.333333,4.9
12187,1538,2020-04-13 12:36:53,EN,20,Female,"Some College, short continuing education or equivalent",College degree,Student,United States,no,Illinois,Single,0.0,No,Life carries on with minor changes,5.0,0.0,Program B,,No,3.0,3.0,4.0,4.0,3.0,2.0,4.0,4.0,5.0,2.0,4.0,1.0,3.0,5.0,8.0,4.0,8.0,5.0,4.0,6.0,2.0,3.0,4.0,4.0,5.0,5.0,0.0,5.0,4.0,4.0,2.0,2.0,1.0,4.0,4.0,5.0,5.0,5.0,3.0,4.0,2.0,4.0,3.0,5.0,5.0,5.0,4.0,5.0,99.0,5.0,99.0,4.0,1.0,5.0,99.0,4.0,99.0,4.0,3.0,5.0,4.0,5.0,6.0,4.0,4.0,5.0,4.0,6.0,4.0,4.0,6.0,2.0,,6.0,6.0,6.0,6.0,6.0,6.0,6.0,6.0,6.0,6.0,5.0,6.0,6.0,6.0,6.0,6.0,5.0,6.0,4.0,4.0,2.0,4.0,4.0,3.0,3.0,3.0,,6.0,6.0,2.0,6.0,6.0,2.0,,2.8,2.666667,3.333333,4.666667,3.333333,4.666667,4.333333,6.0
12194,493,2020-04-13 12:17:15,EN,19,Other/would rather not say,"Some College, short continuing education or equivalent",Some College or equivalent,Student,United States,no,IL,Single,0.0,Yes,Isolated,2.0,0.0,,Program D,Yes,4.0,4.0,5.0,2.0,2.0,4.0,3.0,2.0,2.0,3.0,4.0,3.0,5.0,2.0,6.0,4.0,3.0,4.0,5.0,6.0,4.0,4.0,5.0,5.0,6.0,6.0,2.0,5.0,3.0,2.0,3.0,3.0,3.0,5.0,6.0,2.0,3.0,1.0,5.0,4.0,5.0,5.0,4.0,5.0,3.0,5.0,5.0,4.0,6.0,6.0,99.0,5.0,4.0,5.0,1.0,5.0,99.0,5.0,5.0,4.0,6.0,5.0,6.0,4.0,3.0,6.0,5.0,5.0,5.0,4.0,5.0,2.0,,4.0,2.0,3.0,2.0,5.0,4.0,2.0,1.0,5.0,5.0,5.0,2.0,2.0,2.0,4.0,5.0,3.0,4.0,5.0,3.0,4.0,5.0,3.0,2.0,1.0,4.0,,5.0,5.0,4.0,5.0,5.0,2.0,,3.7,4.0,5.333333,2.0,4.666667,3.666667,3.666667,3.3
12195,1021,2020-04-13 12:25:42,EN,68,Female,"College degree, bachelor, master",Up to 12 years of school,Retired,United States,no,California,Married/cohabiting,0.0,Yes,Life carries on with minor changes,1.0,0.0,Program A,,Yes,1.0,2.0,3.0,5.0,4.0,1.0,5.0,5.0,1.0,1.0,1.0,1.0,3.0,9.0,10.0,5.0,,,,5.0,,5.0,5.0,5.0,5.0,5.0,,6.0,6.0,6.0,2.0,4.0,1.0,5.0,2.0,6.0,4.0,1.0,6.0,4.0,5.0,1.0,2.0,5.0,5.0,6.0,4.0,6.0,1.0,1.0,99.0,99.0,1.0,4.0,1.0,1.0,99.0,5.0,1.0,1.0,1.0,2.0,1.0,1.0,2.0,1.0,4.0,1.0,1.0,1.0,2.0,5.0,,6.0,6.0,6.0,6.0,6.0,6.0,6.0,6.0,6.0,6.0,5.0,1.0,1.0,1.0,2.0,6.0,2.0,2.0,6.0,5.0,3.0,6.0,4.0,5.0,1.0,5.0,,1.0,1.0,5.0,4.0,1.0,5.0,,1.4,1.666667,2.666667,2.0,3.333333,5.0,5.0,6.0
12201,2664,2020-04-13 12:50:54,EN,21,Female,"Some College, short continuing education or equivalent",College degree,Student,United States,no,Illinois,Single,0.0,Yes,Isolated,2.0,0.0,,Program D,No,3.0,4.0,4.0,4.0,3.0,2.0,3.0,3.0,3.0,2.0,1.0,1.0,4.0,5.0,8.0,3.0,7.0,5.0,7.0,10.0,0.0,5.0,4.0,4.0,6.0,6.0,2.0,3.0,4.0,6.0,1.0,2.0,5.0,5.0,5.0,4.0,1.0,2.0,6.0,5.0,6.0,6.0,2.0,3.0,4.0,5.0,4.0,5.0,99.0,4.0,99.0,1.0,3.0,4.0,99.0,4.0,99.0,4.0,4.0,5.0,6.0,5.0,5.0,2.0,1.0,3.0,4.0,1.0,6.0,3.0,6.0,1.0,,6.0,6.0,6.0,6.0,6.0,6.0,6.0,6.0,6.0,6.0,1.0,4.0,5.0,5.0,5.0,3.0,5.0,1.0,5.0,5.0,3.0,4.0,5.0,6.0,1.0,6.0,,2.0,3.0,3.0,3.0,1.0,2.0,,2.9,2.0,4.333333,1.333333,5.666667,4.0,4.333333,6.0
12217,921,2020-04-14 12:17:16,EN,48,Female,"College degree, bachelor, master",College degree,Full time employed,United States,no,Illinois,Married/cohabiting,2.0,Yes,Life carries on with minor changes,,,,Program C,No,3.0,3.0,4.0,5.0,4.0,1.0,4.0,5.0,2.0,2.0,1.0,1.0,1.0,5.0,5.0,2.0,5.0,5.0,9.0,10.0,1.0,5.0,1.0,1.0,6.0,6.0,0.0,,,,,3.0,,,,,,,,,,,,,,,,,,,,,,,,,,,,,,,,,,,,,,,,,,,,,,,,,,,,,,,,,,,,,,,,,,,,,,,,,,,,2.1,1.0,,,,,,
12316,19096,2020-04-14 16:35:56,EN,57,Female,"College degree, bachelor, master",Up to 12 years of school,Full time employed,United States,no,Colorado,Divorced/widowed,0.0,Yes,Isolated,0.0,0.0,,,,,,,,,,,,,,,,,,,,,,,,,,,,,,,,,,,,,,,,,,,,,,,,,,,,,,,,,,,,,,,,,,,,,,,,,,,,,,,,,,,,,,,,,,,,,,,,,,,,,,,,,,,,,,,,,,,,,,
12319,798,2020-04-13 11:30:10,SV,59,Male,"College degree, bachelor, master",Up to 9 years of school,Self-employed,United States,no,Atlanta,Married/cohabiting,0.0,Yes,Isolated,1.0,0.0,Program B,,No,2.0,3.0,2.0,5.0,4.0,2.0,5.0,4.0,3.0,1.0,3.0,1.0,3.0,6.0,10.0,4.0,9.0,7.0,10.0,9.0,6.0,6.0,6.0,5.0,6.0,5.0,3.0,5.0,6.0,5.0,4.0,3.0,4.0,2.0,2.0,5.0,3.0,4.0,4.0,4.0,4.0,4.0,3.0,5.0,4.0,5.0,3.0,5.0,5.0,4.0,99.0,5.0,4.0,5.0,1.0,2.0,99.0,3.0,3.0,5.0,5.0,4.0,2.0,3.0,4.0,1.0,3.0,4.0,4.0,4.0,4.0,3.0,,6.0,5.0,5.0,6.0,6.0,6.0,6.0,6.0,5.0,6.0,3.0,4.0,6.0,3.0,6.0,6.0,5.0,2.0,6.0,3.0,4.0,5.0,5.0,6.0,1.0,3.0,,3.0,5.0,6.0,3.0,4.0,4.0,,1.9,2.333333,2.0,3.333333,4.0,4.333333,4.666667,5.7
12321,388,2020-04-14 11:23:01,EN,27,Female,"College degree, bachelor, master",,Not employed,United States,no,California,Other or would rather not say,0.0,Yes,Life carries on as usual,4.0,0.0,,Program D,Not sure,2.0,3.0,5.0,3.0,1.0,5.0,5.0,1.0,1.0,3.0,4.0,5.0,5.0,,,,,,,,,,,,,,,,,,,,,,,,,,,,,,,,,,,,,,,,,,,,,,,,,,,,,,,,,,,,,,,,,,,,,,,,,,,,,,,,,,,,,,,,,,,,,,,3.3,4.666667,,,,,,
12388,1252,2020-04-14 10:55:15,EN,72,Female,"College degree, bachelor, master",Some College or equivalent,Retired,United States,no,,Married/cohabiting,0.0,Yes,Life carries on with minor changes,1.0,0.0,,,,1.0,2.0,2.0,5.0,4.0,2.0,5.0,3.0,3.0,2.0,1.0,1.0,3.0,9.0,10.0,2.0,7.0,5.0,8.0,8.0,5.0,6.0,6.0,6.0,6.0,6.0,0.0,5.0,6.0,6.0,1.0,4.0,5.0,5.0,2.0,6.0,5.0,6.0,2.0,5.0,6.0,6.0,1.0,6.0,5.0,3.0,4.0,6.0,,,,,,,,,,,,,,,,,,,,,,,,,,,,,,,,,,,,,,,,,,,,,,,,,,,,,,,,,,,,1.9,1.666667,2.666667,5.333333,5.666667,5.666667,4.0,
12410,1766,2020-04-13 10:51:57,EN,66,Female,"College degree, bachelor, master",Up to 12 years of school,Part time employed,United States,no,California,Married/cohabiting,1.0,Yes,Isolated,1.0,0.0,,,,1.0,1.0,2.0,5.0,4.0,1.0,5.0,4.0,1.0,1.0,2.0,2.0,2.0,5.0,7.0,7.0,8.0,6.0,5.0,8.0,5.0,4.0,5.0,5.0,5.0,5.0,5.0,5.0,5.0,5.0,,5.0,3.0,5.0,2.0,6.0,5.0,5.0,2.0,6.0,6.0,6.0,2.0,6.0,6.0,5.0,5.0,5.0,1.0,2.0,99.0,99.0,1.0,4.0,99.0,1.0,99.0,4.0,2.0,2.0,1.0,4.0,,3.0,1.0,2.0,2.0,1.0,3.0,1.0,4.0,3.0,,5.0,5.0,5.0,5.0,5.0,5.0,5.0,5.0,5.0,5.0,,4.0,3.0,3.0,3.0,5.0,4.0,4.0,4.0,3.0,3.0,3.0,3.0,5.0,5.0,3.0,,2.0,3.0,4.0,3.0,2.0,2.0,I was recently in a car accident and have been unable to receive physical therapy,1.3,2.0,2.666667,5.0,6.0,5.666667,4.0,5.0
12529,1450,2020-04-14 09:58:23,EN,72,Female,"College degree, bachelor, master",Some College or equivalent,Retired,United States,no,MN,Single,0.0,Yes,Life carries on with minor changes,0.0,0.0,Program A,,No,2.0,2.0,3.0,4.0,4.0,2.0,4.0,4.0,2.0,2.0,3.0,2.0,2.0,6.0,8.0,6.0,7.0,7.0,8.0,7.0,5.0,5.0,5.0,5.0,5.0,5.0,3.0,6.0,5.0,5.0,2.0,5.0,2.0,5.0,1.0,5.0,4.0,2.0,2.0,4.0,5.0,4.0,4.0,6.0,5.0,4.0,2.0,5.0,2.0,4.0,99.0,4.0,2.0,5.0,2.0,99.0,99.0,4.0,5.0,5.0,5.0,5.0,4.0,4.0,3.0,4.0,2.0,4.0,4.0,4.0,5.0,2.0,,5.0,5.0,5.0,5.0,5.0,5.0,6.0,5.0,5.0,5.0,4.0,5.0,5.0,4.0,5.0,4.0,2.0,2.0,4.0,4.0,5.0,4.0,5.0,5.0,5.0,4.0,,4.0,5.0,3.0,5.0,4.0,4.0,More effort to develop my own sense of well being through meditation. Hooponopono Acceptance,2.1,2.333333,2.666667,3.666667,4.333333,4.666667,4.666667,5.1
12537,837,2020-04-13 09:43:14,EN,20,Female,"Some College, short continuing education or equivalent",Some College or equivalent,Student,United States,no,Illinois,Single,0.0,No,Life carries on with minor changes,,,Program A,,No,3.0,2.0,3.0,4.0,1.0,3.0,4.0,4.0,3.0,2.0,4.0,2.0,4.0,5.0,8.0,2.0,3.0,3.0,2.0,7.0,1.0,4.0,5.0,4.0,6.0,5.0,0.0,6.0,6.0,5.0,1.0,3.0,2.0,4.0,4.0,5.0,3.0,1.0,5.0,4.0,6.0,5.0,3.0,6.0,6.0,5.0,3.0,6.0,4.0,5.0,99.0,6.0,4.0,5.0,5.0,4.0,99.0,5.0,4.0,4.0,4.0,6.0,5.0,5.0,5.0,5.0,6.0,3.0,3.0,1.0,6.0,5.0,,6.0,6.0,5.0,5.0,6.0,6.0,6.0,6.0,6.0,6.0,4.0,2.0,6.0,3.0,6.0,4.0,3.0,2.0,5.0,6.0,4.0,4.0,4.0,5.0,5.0,3.0,,3.0,4.0,4.0,4.0,4.0,4.0,,2.7,3.333333,3.333333,2.0,5.0,5.333333,5.0,5.8
12695,1121,2020-04-13 08:35:31,EN,35,Female,"College degree, bachelor, master",College degree,Full time employed,United States,no,Tennessee,Single,0.0,Yes,Life carries on with minor changes,2.0,3.0,Program B,,No,3.0,3.0,4.0,3.0,4.0,2.0,3.0,4.0,2.0,2.0,2.0,3.0,4.0,7.0,9.0,5.0,5.0,7.0,7.0,9.0,3.0,5.0,5.0,5.0,5.0,5.0,3.0,4.0,4.0,4.0,3.0,4.0,4.0,3.0,4.0,4.0,4.0,4.0,2.0,5.0,6.0,5.0,2.0,6.0,6.0,4.0,4.0,4.0,1.0,4.0,99.0,1.0,4.0,5.0,99.0,5.0,6.0,5.0,2.0,5.0,6.0,6.0,5.0,5.0,5.0,3.0,4.0,4.0,4.0,4.0,5.0,4.0,,6.0,6.0,6.0,6.0,6.0,6.0,6.0,6.0,6.0,6.0,2.0,6.0,5.0,1.0,4.0,6.0,1.0,1.0,6.0,1.0,3.0,4.0,5.0,5.0,1.0,3.0,"Time with my pets, nature walks",2.0,4.0,4.0,4.0,4.0,4.0,Increased frustration and anger at our government and the overall lack of financial and health support for all Americans.,2.6,3.0,3.333333,4.333333,5.333333,5.666667,3.666667,6.0
12706,1170,2020-04-13 08:31:50,PT-BR,34,Female,PhD/Doctorate,Up to 12 years of school,Not employed,United States,yes,Texas,Married/cohabiting,1.0,No,Isolated,1.0,1.0,Program B,,No,3.0,3.0,3.0,3.0,2.0,3.0,4.0,2.0,3.0,3.0,3.0,2.0,4.0,8.0,9.0,0.0,1.0,5.0,5.0,9.0,4.0,1.0,1.0,1.0,1.0,3.0,3.0,6.0,4.0,4.0,2.0,4.0,4.0,4.0,1.0,5.0,6.0,5.0,2.0,2.0,4.0,4.0,1.0,5.0,5.0,2.0,4.0,6.0,4.0,99.0,2.0,4.0,6.0,4.0,4.0,4.0,4.0,6.0,5.0,6.0,6.0,6.0,99.0,99.0,4.0,2.0,3.0,4.0,6.0,4.0,6.0,4.0,,5.0,5.0,5.0,5.0,5.0,4.0,5.0,5.0,4.0,5.0,3.0,4.0,6.0,4.0,6.0,6.0,1.0,1.0,6.0,5.0,3.0,6.0,2.0,4.0,6.0,2.0,,3.0,1.0,3.0,6.0,6.0,1.0,,3.1,3.0,2.333333,5.333333,3.333333,5.333333,3.666667,4.8
12720,2239,2020-04-13 08:40:23,EN,41,Other/would rather not say,"College degree, bachelor, master",Some College or equivalent,Not employed,United States,no,Florida,Married/cohabiting,3.0,Yes,Life carries on with minor changes,1.0,3.0,Program A,,Yes,3.0,3.0,3.0,4.0,3.0,2.0,4.0,4.0,3.0,2.0,2.0,2.0,3.0,5.0,8.0,1.0,2.0,5.0,1.0,7.0,0.0,6.0,6.0,6.0,6.0,6.0,0.0,6.0,5.0,5.0,1.0,3.0,4.0,3.0,5.0,4.0,3.0,2.0,5.0,4.0,5.0,4.0,4.0,3.0,4.0,5.0,4.0,5.0,6.0,99.0,1.0,6.0,1.0,1.0,1.0,2.0,1.0,6.0,4.0,6.0,6.0,5.0,99.0,1.0,1.0,1.0,1.0,1.0,1.0,1.0,1.0,1.0,,3.0,5.0,5.0,5.0,5.0,4.0,4.0,5.0,5.0,5.0,1.0,5.0,5.0,1.0,3.0,5.0,6.0,2.0,5.0,5.0,5.0,5.0,5.0,5.0,3.0,1.0,,1.0,5.0,5.0,1.0,4.0,4.0,,2.5,2.333333,3.666667,2.333333,4.333333,3.333333,4.333333,4.6
12727,768,2020-04-13 08:13:58,EN,47,Female,"College degree, bachelor, master",Some College or equivalent,Full time employed,United States,no,Missouri,Married/cohabiting,2.0,Yes,Isolated,2.0,0.0,Program B,,No,2.0,3.0,2.0,3.0,3.0,3.0,4.0,4.0,2.0,3.0,4.0,2.0,2.0,5.0,7.0,3.0,5.0,7.0,9.0,5.0,6.0,4.0,4.0,4.0,5.0,4.0,4.0,3.0,5.0,5.0,3.0,2.0,3.0,5.0,5.0,3.0,3.0,2.0,5.0,5.0,6.0,5.0,3.0,5.0,4.0,4.0,4.0,4.0,3.0,6.0,5.0,3.0,4.0,3.0,1.0,6.0,99.0,5.0,5.0,5.0,4.0,4.0,5.0,5.0,1.0,2.0,5.0,2.0,5.0,2.0,5.0,99.0,,5.0,5.0,4.0,5.0,6.0,4.0,5.0,5.0,4.0,5.0,3.0,2.0,4.0,4.0,5.0,5.0,1.0,1.0,4.0,4.0,4.0,5.0,2.0,6.0,6.0,4.0,,4.0,5.0,5.0,1.0,5.0,1.0,,2.5,2.666667,4.666667,2.333333,5.333333,4.333333,3.666667,4.8
13850,600,2020-04-13 23:08:18,EN,33,Female,"College degree, bachelor, master",Up to 12 years of school,Full time employed,United States,yes,California,Married/cohabiting,2.0,No,Isolated,1.0,2.0,,Program D,No,2.0,2.0,4.0,3.0,3.0,2.0,2.0,3.0,2.0,2.0,5.0,4.0,4.0,8.0,9.0,3.0,7.0,7.0,7.0,8.0,1.0,5.0,5.0,5.0,5.0,5.0,0.0,6.0,6.0,6.0,5.0,5.0,1.0,,,,,,,,,,,,,,,,,,,,,,,,,,,,,,,,,,,,,,,,,,,,,,,,,,,,,,,,,,,,,,,,,,,,,,,,,,,2.7,4.333333,,,,,,
13852,260,2020-04-13 23:02:18,EN,52,Female,"College degree, bachelor, master",College degree,Full time employed,United States,,,Married/cohabiting,1.0,Yes,Life carries on with minor changes,1.0,0.0,,,,3.0,3.0,3.0,4.0,3.0,2.0,4.0,3.0,3.0,1.0,3.0,3.0,5.0,,,,,,,,,,,,,,,,,,,,,,,,,,,,,,,,,,,,,,,,,,,,,,,,,,,,,,,,,,,,,,,,,,,,,,,,,,,,,,,,,,,,,,,,,,,,,,,2.5,3.666667,,,,,,
13988,1056,2020-04-12 19:46:23,BG,54,Female,"College degree, bachelor, master",College degree,Student,United States,yes,New York,Married/cohabiting,2.0,No,Life carries on with minor changes,1.0,2.0,Program A,,No,3.0,3.0,4.0,4.0,2.0,2.0,4.0,2.0,1.0,1.0,1.0,3.0,1.0,4.0,8.0,3.0,4.0,4.0,,,3.0,5.0,6.0,5.0,5.0,5.0,3.0,5.0,6.0,6.0,2.0,2.0,4.0,3.0,2.0,4.0,4.0,2.0,5.0,4.0,5.0,6.0,4.0,4.0,4.0,4.0,2.0,6.0,2.0,1.0,4.0,2.0,2.0,2.0,1.0,5.0,99.0,5.0,5.0,5.0,5.0,5.0,1.0,2.0,2.0,2.0,2.0,5.0,5.0,1.0,5.0,2.0,,3.0,5.0,3.0,4.0,5.0,5.0,4.0,5.0,4.0,4.0,1.0,4.0,6.0,4.0,5.0,2.0,1.0,1.0,4.0,2.0,3.0,3.0,4.0,4.0,1.0,4.0,,2.0,4.0,5.0,5.0,2.0,4.0,,2.6,1.666667,2.666667,2.666667,5.0,3.666667,5.0,4.2
14028,3905,2020-04-12 19:28:33,EN,68,Male,Up to 12 years of school,Up to 12 years of school,Retired,United States,no,Alabama,Married/cohabiting,1.0,Yes,Life carries on with minor changes,2.0,0.0,,Program C,No,3.0,2.0,3.0,4.0,4.0,1.0,5.0,4.0,1.0,1.0,1.0,1.0,3.0,5.0,9.0,3.0,8.0,8.0,8.0,2.0,9.0,5.0,5.0,5.0,5.0,5.0,5.0,5.0,5.0,5.0,2.0,2.0,2.0,4.0,4.0,5.0,5.0,3.0,4.0,5.0,5.0,5.0,2.0,4.0,5.0,5.0,2.0,5.0,2.0,2.0,2.0,2.0,2.0,2.0,2.0,2.0,2.0,5.0,5.0,4.0,4.0,5.0,2.0,2.0,2.0,2.0,2.0,2.0,2.0,2.0,5.0,2.0,,5.0,5.0,5.0,5.0,5.0,5.0,5.0,6.0,5.0,5.0,5.0,6.0,5.0,2.0,4.0,4.0,2.0,2.0,5.0,4.0,4.0,4.0,2.0,2.0,2.0,5.0,,2.0,5.0,2.0,2.0,2.0,2.0,,1.8,1.666667,3.333333,3.666667,5.0,4.666667,5.0,5.1
14107,1802,2020-04-12 16:31:39,SME,24,Female,"College degree, bachelor, master",College degree,Full time employed,United States,yes,"California, Estados Unidos",Single,0.0,No,Life carries on with minor changes,2.0,2.0,,Program C,No,4.0,3.0,4.0,3.0,3.0,3.0,4.0,3.0,4.0,3.0,4.0,4.0,4.0,8.0,8.0,2.0,9.0,8.0,8.0,8.0,9.0,2.0,4.0,4.0,5.0,4.0,2.0,5.0,5.0,5.0,2.0,5.0,2.0,5.0,4.0,5.0,6.0,5.0,3.0,5.0,5.0,5.0,2.0,5.0,5.0,5.0,3.0,5.0,1.0,5.0,4.0,3.0,3.0,2.0,1.0,3.0,6.0,5.0,4.0,4.0,4.0,6.0,4.0,4.0,2.0,4.0,3.0,2.0,4.0,3.0,5.0,5.0,,6.0,5.0,4.0,5.0,6.0,5.0,5.0,5.0,5.0,6.0,5.0,5.0,6.0,4.0,5.0,5.0,4.0,4.0,5.0,5.0,4.0,4.0,6.0,5.0,1.0,5.0,Ejercitarme,5.0,5.0,5.0,6.0,5.0,2.0,Vivir lejos de mi familia y amigos y que no pueda regresar a mi país temporalmente. Cuidar a un niño con necesidades especiales (autismo) y el cambio de rutina con él.,3.2,4.0,3.666667,5.0,5.0,5.0,4.666667,5.2
14368,177,2020-04-13 13:29:47,EN,55,Female,"Some College, short continuing education or equivalent",Up to 9 years of school,Full time employed,United States,no,Ma,Married/cohabiting,0.0,Yes,Life carries on with minor changes,1.0,0.0,Program B,,,,,,,,,,,,,,,,,,,,,,,,,,,,,,,,,,,,,,,,,,,,,,,,,,,,,,,,,,,,,,,,,,,,,,,,,,,,,,,,,,,,,,,,,,,,,,,,,,,,,,,,,,,,,,,,,,,,,
14369,613,2020-04-12 13:36:54,EN,37,Female,"College degree, bachelor, master",College degree,Self-employed,United States,no,PA,Married/cohabiting,3.0,No,Isolated,1.0,3.0,,Program D,No,4.0,5.0,4.0,3.0,2.0,4.0,1.0,3.0,4.0,4.0,3.0,3.0,4.0,3.0,6.0,3.0,5.0,5.0,5.0,5.0,3.0,2.0,2.0,2.0,3.0,3.0,2.0,6.0,6.0,5.0,5.0,3.0,4.0,5.0,6.0,3.0,4.0,4.0,4.0,4.0,4.0,4.0,4.0,4.0,5.0,3.0,4.0,3.0,1.0,4.0,4.0,99.0,5.0,5.0,4.0,5.0,6.0,5.0,4.0,4.0,3.0,5.0,3.0,5.0,4.0,5.0,4.0,6.0,2.0,1.0,5.0,3.0,,5.0,5.0,5.0,5.0,5.0,5.0,5.0,6.0,5.0,5.0,3.0,4.0,5.0,2.0,5.0,4.0,5.0,5.0,5.0,5.0,4.0,5.0,5.0,5.0,6.0,4.0,,5.0,5.0,5.0,4.0,5.0,3.0,,4.0,3.333333,5.0,3.666667,4.0,4.0,3.0,5.1
14396,1645,2020-04-12 13:41:44,EN,62,Female,"Some College, short continuing education or equivalent",Some College or equivalent,Retired,United States,no,AL,Married/cohabiting,1.0,Yes,Isolated,2.0,0.0,,Program D,No,4.0,4.0,4.0,3.0,2.0,4.0,3.0,2.0,2.0,4.0,3.0,3.0,5.0,6.0,9.0,7.0,8.0,8.0,7.0,7.0,9.0,6.0,6.0,6.0,6.0,6.0,7.0,5.0,5.0,5.0,4.0,3.0,4.0,4.0,4.0,5.0,4.0,4.0,3.0,4.0,5.0,4.0,2.0,4.0,5.0,3.0,4.0,5.0,5.0,99.0,99.0,99.0,5.0,6.0,4.0,6.0,99.0,6.0,5.0,6.0,6.0,6.0,99.0,5.0,5.0,5.0,6.0,5.0,6.0,4.0,5.0,99.0,,5.0,5.0,5.0,6.0,5.0,6.0,5.0,6.0,4.0,5.0,5.0,2.0,6.0,1.0,5.0,5.0,5.0,5.0,6.0,4.0,5.0,5.0,4.0,4.0,5.0,5.0,,6.0,6.0,5.0,4.0,6.0,3.0,,3.6,3.666667,3.333333,4.0,4.333333,4.666667,3.666667,5.2
14439,380,2020-04-13 12:58:46,EN,51,Male,PhD/Doctorate,College degree,Full time employed,United States,no,Texas,Married/cohabiting,4.0,No,Isolated,2.0,1.0,,Program D,No,2.0,2.0,3.0,5.0,2.0,2.0,4.0,4.0,2.0,2.0,2.0,2.0,3.0,,,,,,,,,,,,,,,,,,,,,,,,,,,,,,,,,,,,,,,,,,,,,,,,,,,,,,,,,,,,,,,,,,,,,,,,,,,,,,,,,,,,,,,,,,,,,,,2.2,2.333333,,,,,,
14506,1001,2020-04-12 12:33:11,EN,52,Female,"College degree, bachelor, master",College degree,Full time employed,United States,no,MA,Married/cohabiting,0.0,Yes,Life carries on with minor changes,1.0,0.0,,Program D,No,3.0,2.0,3.0,4.0,3.0,3.0,4.0,4.0,2.0,2.0,3.0,3.0,3.0,6.0,7.0,3.0,3.0,5.0,5.0,6.0,3.0,5.0,6.0,5.0,6.0,6.0,2.0,6.0,5.0,6.0,3.0,5.0,2.0,5.0,4.0,5.0,2.0,2.0,6.0,5.0,5.0,6.0,2.0,5.0,5.0,4.0,2.0,5.0,2.0,6.0,99.0,5.0,5.0,3.0,1.0,2.0,99.0,6.0,4.0,5.0,5.0,5.0,3.0,3.0,4.0,3.0,5.0,3.0,3.0,3.0,5.0,2.0,,4.0,5.0,5.0,5.0,5.0,5.0,5.0,6.0,5.0,4.0,5.0,5.0,5.0,5.0,5.0,5.0,1.0,1.0,4.0,3.0,4.0,5.0,5.0,3.0,1.0,5.0,,3.0,4.0,4.0,5.0,5.0,4.0,So worried about restaurant industry friends.,2.4,3.0,3.666667,1.666667,5.333333,5.0,4.666667,4.9
14547,503,2020-04-13 12:02:50,EN,25,Female,"College degree, bachelor, master",Up to 12 years of school,Full time employed,United States,no,Utah,Married/cohabiting,3.0,Yes,Life carries on with minor changes,1.0,3.0,,Program D,No,4.0,4.0,4.0,3.0,2.0,3.0,3.0,2.0,4.0,4.0,4.0,4.0,4.0,5.0,8.0,5.0,8.0,8.0,6.0,5.0,6.0,6.0,6.0,6.0,5.0,5.0,3.0,5.0,6.0,5.0,4.0,4.0,5.0,5.0,5.0,5.0,5.0,3.0,4.0,5.0,5.0,4.0,4.0,5.0,5.0,5.0,3.0,5.0,4.0,6.0,6.0,6.0,4.0,5.0,99.0,6.0,6.0,6.0,5.0,5.0,6.0,6.0,6.0,6.0,6.0,6.0,5.0,6.0,6.0,4.0,6.0,4.0,,,,,,,,,,,,,,,,,,,,,,,,,,,,,,,,,,,,3.7,4.0,4.0,3.666667,4.666667,4.333333,4.666667,
14581,618,2020-04-12 11:51:51,EN,40,Female,"College degree, bachelor, master",College degree,Full time employed,United States,no,Il,Single,0.0,Not sure,Isolated,1.0,0.0,Program A,,No,1.0,3.0,3.0,3.0,3.0,3.0,2.0,2.0,5.0,2.0,3.0,3.0,4.0,5.0,8.0,2.0,3.0,6.0,2.0,6.0,1.0,4.0,5.0,5.0,6.0,5.0,0.0,5.0,5.0,4.0,5.0,2.0,3.0,4.0,3.0,6.0,5.0,4.0,3.0,4.0,4.0,3.0,4.0,3.0,4.0,5.0,3.0,6.0,3.0,4.0,99.0,4.0,3.0,6.0,99.0,4.0,99.0,4.0,2.0,3.0,2.0,3.0,5.0,6.0,99.0,4.0,6.0,2.0,2.0,2.0,5.0,4.0,Level of boredom and depression,5.0,5.0,5.0,5.0,6.0,5.0,5.0,5.0,5.0,5.0,3.0,4.0,2.0,3.0,3.0,2.0,1.0,1.0,4.0,3.0,2.0,4.0,3.0,2.0,1.0,2.0,,5.0,2.0,2.0,3.0,5.0,3.0,,3.1,3.333333,2.666667,4.333333,3.666667,3.333333,5.0,5.1
14615,849,2020-04-12 11:34:44,EN,48,Male,"Some College, short continuing education or equivalent",Some College or equivalent,Not employed,United States,no,Texas,Married/cohabiting,1.0,Yes,Life carries on with minor changes,4.0,0.0,,Program C,No,3.0,3.0,3.0,3.0,2.0,4.0,3.0,3.0,3.0,4.0,1.0,2.0,5.0,4.0,6.0,0.0,4.0,5.0,3.0,7.0,0.0,6.0,6.0,5.0,6.0,6.0,0.0,4.0,4.0,4.0,2.0,4.0,2.0,5.0,3.0,3.0,3.0,1.0,6.0,2.0,1.0,3.0,6.0,3.0,3.0,3.0,6.0,3.0,6.0,99.0,5.0,6.0,4.0,4.0,1.0,5.0,99.0,6.0,3.0,6.0,6.0,4.0,99.0,99.0,1.0,1.0,1.0,1.0,3.0,3.0,5.0,3.0,,3.0,4.0,4.0,4.0,2.0,4.0,4.0,6.0,4.0,3.0,1.0,2.0,4.0,2.0,4.0,1.0,5.0,2.0,4.0,2.0,2.0,4.0,1.0,5.0,1.0,1.0,,1.0,6.0,6.0,1.0,1.0,1.0,,3.3,2.666667,4.0,1.666667,2.0,2.333333,2.333333,3.8
14648,1057,2020-04-12 11:13:09,EN,40,Female,"College degree, bachelor, master",Up to 12 years of school,Full time employed,United States,no,IL,Married/cohabiting,0.0,Yes,Isolated,1.0,0.0,,Program D,Not sure,3.0,3.0,4.0,3.0,3.0,3.0,3.0,2.0,4.0,3.0,2.0,3.0,4.0,2.0,8.0,0.0,1.0,1.0,1.0,5.0,0.0,5.0,6.0,5.0,5.0,5.0,0.0,5.0,4.0,4.0,4.0,3.0,2.0,5.0,4.0,3.0,4.0,5.0,4.0,4.0,5.0,5.0,4.0,3.0,5.0,5.0,4.0,5.0,3.0,6.0,99.0,1.0,2.0,5.0,1.0,2.0,99.0,6.0,5.0,6.0,6.0,6.0,4.0,6.0,5.0,5.0,6.0,5.0,5.0,2.0,5.0,6.0,Ability to maintain my mental health and physical wellbeing,3.0,5.0,5.0,5.0,6.0,5.0,2.0,6.0,5.0,3.0,1.0,1.0,6.0,1.0,4.0,5.0,5.0,1.0,5.0,4.0,2.0,2.0,4.0,6.0,1.0,2.0,Making time and effort to exercise at home,1.0,5.0,5.0,6.0,5.0,3.0,"I've found it extremely difficult to cope without my usual support when it comes to managing my normally manageable anxiety and depression, and have found myself near breaking more times in the last month than I have in the last ten years.",3.3,3.0,4.333333,4.0,4.666667,3.666667,4.333333,4.5
14822,1754,2020-04-12 09:20:00,SME,50,Female,"College degree, bachelor, master",Some College or equivalent,Self-employed,United States,yes,Texas,Single,2.0,Yes,Isolated,3.0,0.0,Program A,,No,3.0,2.0,2.0,5.0,4.0,3.0,5.0,3.0,1.0,1.0,1.0,1.0,2.0,8.0,8.0,5.0,7.0,7.0,7.0,5.0,5.0,5.0,6.0,6.0,5.0,6.0,4.0,6.0,6.0,6.0,1.0,2.0,2.0,4.0,4.0,6.0,5.0,6.0,1.0,5.0,5.0,5.0,2.0,4.0,6.0,5.0,1.0,4.0,6.0,4.0,6.0,5.0,2.0,2.0,6.0,1.0,99.0,6.0,5.0,5.0,5.0,6.0,2.0,4.0,1.0,1.0,1.0,1.0,4.0,1.0,5.0,2.0,Superes,6.0,6.0,6.0,6.0,6.0,5.0,6.0,6.0,5.0,6.0,6.0,6.0,6.0,6.0,6.0,6.0,1.0,1.0,6.0,6.0,6.0,6.0,6.0,6.0,6.0,6.0,Arreglar cosas en casa que nunca tengo tiempo de hacer,6.0,5.0,5.0,6.0,2.0,4.0,Que el gobierno en México no esté siendo organizado y transparente. Me preocupa muchísimo la ineptitud de AMLO.,1.9,1.333333,3.0,5.666667,5.0,5.0,5.0,5.8
15449,729,2020-04-12 02:48:22,EN,47,Female,"College degree, bachelor, master",Some College or equivalent,Full time employed,United States,no,California,Married/cohabiting,0.0,Yes,Isolated,1.0,0.0,Program A,,No,2.0,4.0,4.0,3.0,3.0,2.0,3.0,3.0,2.0,2.0,1.0,2.0,2.0,6.0,10.0,1.0,5.0,5.0,3.0,9.0,1.0,5.0,5.0,6.0,6.0,6.0,1.0,6.0,6.0,6.0,5.0,2.0,2.0,2.0,1.0,6.0,3.0,2.0,4.0,6.0,6.0,6.0,4.0,6.0,5.0,6.0,2.0,6.0,4.0,5.0,99.0,5.0,4.0,4.0,1.0,2.0,99.0,6.0,4.0,6.0,5.0,5.0,6.0,3.0,2.0,2.0,3.0,4.0,5.0,5.0,6.0,4.0,,6.0,6.0,6.0,6.0,6.0,6.0,6.0,6.0,6.0,6.0,1.0,4.0,6.0,2.0,4.0,5.0,2.0,4.0,4.0,4.0,5.0,1.0,4.0,4.0,1.0,4.0,,2.0,5.0,5.0,4.0,4.0,4.0,,2.8,1.666667,1.333333,2.666667,6.0,4.666667,5.666667,6.0
15600,710,2020-04-12 01:40:02,EN,45,Female,"Some College, short continuing education or equivalent",Up to 12 years of school,Not employed,United States,no,Texas,Single,2.0,Yes,Life carries on with minor changes,0.0,1.0,,Program C,No,2.0,2.0,4.0,4.0,3.0,2.0,3.0,4.0,3.0,2.0,4.0,3.0,3.0,4.0,5.0,7.0,6.0,5.0,6.0,1.0,7.0,5.0,6.0,4.0,5.0,5.0,4.0,4.0,6.0,6.0,2.0,6.0,4.0,4.0,5.0,3.0,2.0,4.0,6.0,4.0,3.0,5.0,4.0,3.0,4.0,5.0,2.0,5.0,99.0,99.0,6.0,2.0,5.0,3.0,99.0,99.0,6.0,4.0,99.0,6.0,5.0,6.0,99.0,99.0,3.0,6.0,2.0,99.0,5.0,6.0,6.0,,,1.0,1.0,1.0,5.0,,1.0,1.0,5.0,1.0,1.0,3.0,4.0,5.0,1.0,4.0,5.0,2.0,1.0,5.0,5.0,5.0,5.0,4.0,2.0,4.0,3.0,,5.0,2.0,1.0,2.0,4.0,2.0,,2.5,3.333333,4.333333,2.333333,4.0,3.333333,5.0,1.888889
15774,454,2020-04-13 00:25:20,SSP,18,Female,Up to 12 years of school,College degree,Student,United States,yes,,Single,0.0,No,Life carries on with minor changes,2.0,0.0,,Program D,Not sure,1.0,3.0,5.0,3.0,1.0,4.0,4.0,1.0,4.0,3.0,3.0,4.0,5.0,5.0,5.0,0.0,0.0,5.0,5.0,8.0,0.0,4.0,4.0,4.0,3.0,4.0,0.0,3.0,4.0,4.0,4.0,3.0,1.0,3.0,6.0,5.0,4.0,3.0,5.0,4.0,3.0,2.0,3.0,2.0,4.0,3.0,5.0,3.0,,,,,,,,,,,,,,,,,,,,,,,,,,,,,,,,,,,,,,,,,,,,,,,,,,,,,,,,,,,,3.5,4.0,3.666667,3.0,3.0,3.333333,2.666667,
15987,683,2020-04-11 21:12:57,EN,61,Female,"College degree, bachelor, master",College degree,Full time employed,United States,no,California,Other or would rather not say,1.0,Yes,Isolated,2.0,0.0,,Program D,Not sure,2.0,4.0,3.0,5.0,2.0,1.0,2.0,4.0,1.0,2.0,2.0,2.0,2.0,1.0,2.0,,1.0,3.0,1.0,1.0,0.0,6.0,6.0,6.0,6.0,6.0,0.0,5.0,3.0,5.0,2.0,1.0,4.0,4.0,4.0,5.0,4.0,3.0,5.0,5.0,4.0,5.0,4.0,5.0,4.0,6.0,1.0,6.0,6.0,99.0,99.0,6.0,4.0,6.0,99.0,4.0,99.0,4.0,1.0,6.0,4.0,4.0,1.0,2.0,1.0,2.0,99.0,6.0,1.0,99.0,4.0,99.0,,4.0,6.0,6.0,4.0,4.0,6.0,4.0,5.0,4.0,4.0,2.0,3.0,3.0,2.0,2.0,3.0,1.0,1.0,1.0,4.0,4.0,3.0,2.0,3.0,1.0,4.0,,1.0,4.0,4.0,1.0,2.0,1.0,,2.4,2.0,3.333333,3.0,4.666667,4.0,6.0,4.7
16212,684,2020-04-12 14:28:27,HU,38,Female,"Some College, short continuing education or equivalent",Up to 9 years of school,Self-employed,United States,yes,NY,Married/cohabiting,1.0,Yes,Life carries on with minor changes,1.0,1.0,,Program D,No,4.0,3.0,5.0,4.0,3.0,4.0,4.0,3.0,4.0,2.0,4.0,4.0,4.0,5.0,8.0,0.0,0.0,,,6.0,0.0,3.0,5.0,5.0,4.0,3.0,2.0,5.0,5.0,5.0,3.0,1.0,3.0,5.0,3.0,2.0,4.0,4.0,2.0,3.0,2.0,2.0,4.0,5.0,3.0,2.0,4.0,5.0,,,,,,,,,,,,,,,,,,,,,,,,,,,,,,,,,,,,,,,,,,,,,,,,,,,,,,,,,,,,3.2,4.0,4.333333,4.333333,2.333333,3.666667,3.333333,
16232,1912,2020-04-12 14:33:46,EN,40,Male,Up to 12 years of school,Up to 12 years of school,Full time employed,United States,no,Pa,Single,3.0,Yes,Life carries on with minor changes,4.0,2.0,,Program C,No,1.0,1.0,3.0,5.0,3.0,1.0,3.0,4.0,1.0,1.0,1.0,1.0,3.0,5.0,10.0,3.0,3.0,3.0,3.0,2.0,5.0,1.0,5.0,5.0,4.0,1.0,5.0,6.0,6.0,6.0,1.0,2.0,2.0,2.0,1.0,6.0,5.0,5.0,2.0,6.0,4.0,5.0,1.0,2.0,6.0,6.0,1.0,6.0,,,,,,,,,,,,,,,,,,,,,,,,,,,,,,,,,,,,,,,,,,,,,,,,,,,,,,,,,,,,1.7,1.666667,1.333333,5.0,5.0,4.666667,6.0,
16403,147,2020-04-12 12:25:31,SME,33,Female,PhD/Doctorate,Up to 9 years of school,Full time employed,United States,yes,MASSACHUSETTS,Married/cohabiting,0.0,No,Isolated,1.0,0.0,,,,,,,,,,,,,,,,,,,,,,,,,,,,,,,,,,,,,,,,,,,,,,,,,,,,,,,,,,,,,,,,,,,,,,,,,,,,,,,,,,,,,,,,,,,,,,,,,,,,,,,,,,,,,,,,,,,,,,
16477,1364,2020-04-11 11:53:52,SR,36,Male,"Some College, short continuing education or equivalent",Up to 12 years of school,Not employed,United States,yes,New York,Single,0.0,No,Life carries on with minor changes,2.0,0.0,,Program D,No,1.0,2.0,1.0,1.0,2.0,1.0,2.0,4.0,2.0,1.0,5.0,1.0,1.0,3.0,6.0,0.0,1.0,7.0,3.0,1.0,1.0,1.0,1.0,4.0,3.0,3.0,10.0,5.0,5.0,4.0,3.0,4.0,3.0,5.0,1.0,6.0,1.0,5.0,5.0,5.0,5.0,5.0,4.0,6.0,5.0,6.0,1.0,6.0,6.0,5.0,6.0,6.0,4.0,6.0,99.0,6.0,99.0,6.0,99.0,6.0,6.0,5.0,1.0,99.0,99.0,2.0,6.0,4.0,6.0,4.0,6.0,6.0,,6.0,6.0,4.0,6.0,6.0,5.0,6.0,6.0,5.0,6.0,1.0,4.0,4.0,3.0,4.0,2.0,1.0,1.0,4.0,5.0,4.0,2.0,4.0,5.0,1.0,2.0,,1.0,6.0,5.0,5.0,1.0,5.0,,2.3,2.333333,2.333333,2.666667,5.0,4.666667,6.0,5.6
16622,946,2020-04-11 10:04:18,EN,47,Female,PhD/Doctorate,Up to 12 years of school,Full time employed,United States,yes,New Jersey,Married/cohabiting,2.0,No,Isolated,1.0,0.0,Program A,,Yes,4.0,2.0,4.0,3.0,3.0,3.0,3.0,2.0,3.0,3.0,2.0,3.0,2.0,4.0,8.0,4.0,5.0,5.0,3.0,8.0,1.0,4.0,5.0,5.0,6.0,6.0,2.0,6.0,5.0,6.0,2.0,4.0,5.0,5.0,3.0,4.0,6.0,6.0,1.0,3.0,6.0,5.0,1.0,4.0,5.0,3.0,3.0,4.0,2.0,2.0,5.0,2.0,5.0,5.0,99.0,5.0,99.0,6.0,5.0,5.0,5.0,5.0,2.0,3.0,2.0,2.0,5.0,5.0,1.0,1.0,99.0,5.0,,5.0,5.0,5.0,5.0,5.0,5.0,5.0,5.0,3.0,5.0,5.0,1.0,5.0,5.0,6.0,5.0,1.0,1.0,6.0,5.0,4.0,5.0,5.0,5.0,1.0,5.0,Food,2.0,2.0,2.0,6.0,3.0,2.0,Concern about extreme capitalism and individualism in the US affecting living wages,3.2,2.333333,3.666667,6.0,4.666667,5.0,3.666667,4.8
16763,6700,2020-04-11 09:29:23,RO,32,Female,PhD/Doctorate,Up to 9 years of school,Not employed,United States,yes,United States of America,Married/cohabiting,1.0,Yes,Isolated,1.0,0.0,Program B,,No,4.0,3.0,3.0,4.0,3.0,4.0,4.0,4.0,2.0,3.0,4.0,2.0,4.0,7.0,9.0,8.0,10.0,9.0,10.0,8.0,8.0,6.0,6.0,5.0,5.0,6.0,4.0,6.0,6.0,6.0,4.0,5.0,5.0,3.0,3.0,2.0,6.0,3.0,4.0,6.0,5.0,6.0,1.0,5.0,6.0,5.0,4.0,4.0,3.0,99.0,99.0,6.0,2.0,6.0,1.0,3.0,99.0,5.0,3.0,6.0,6.0,6.0,99.0,5.0,3.0,5.0,6.0,6.0,4.0,2.0,4.0,5.0,,6.0,5.0,5.0,4.0,5.0,5.0,5.0,6.0,5.0,5.0,5.0,1.0,6.0,1.0,5.0,4.0,1.0,1.0,6.0,5.0,4.0,5.0,2.0,5.0,1.0,6.0,,6.0,5.0,5.0,5.0,5.0,3.0,,2.8,3.333333,3.666667,4.0,5.666667,5.666667,4.0,5.1
16811,554,2020-04-11 06:58:57,FI,42,Male,"College degree, bachelor, master",College degree,Self-employed,United States,yes,,Married/cohabiting,0.0,Yes,Life carries on with minor changes,,,,Program D,No,,1.0,,1.0,4.0,1.0,5.0,5.0,1.0,1.0,1.0,,,5.0,,1.0,10.0,5.0,1.0,4.0,1.0,4.0,4.0,4.0,6.0,6.0,0.0,5.0,5.0,4.0,4.0,3.0,5.0,5.0,4.0,6.0,5.0,5.0,3.0,5.0,5.0,6.0,4.0,6.0,5.0,4.0,3.0,5.0,4.0,2.0,2.0,2.0,3.0,2.0,1.0,2.0,1.0,6.0,5.0,5.0,5.0,5.0,2.0,2.0,2.0,5.0,4.0,2.0,2.0,2.0,2.0,2.0,,5.0,5.0,5.0,5.0,5.0,5.0,5.0,5.0,4.0,5.0,1.0,5.0,5.0,2.0,5.0,3.0,4.0,5.0,5.0,5.0,5.0,1.0,5.0,5.0,4.0,2.0,,2.0,5.0,5.0,3.0,5.0,6.0,Marinin hallituksen kokemattomuus huolettaa.,1.625,1.0,3.333333,4.666667,5.333333,4.666667,4.333333,4.9
17021,372,2020-04-11 03:46:53,EN,28,Male,PhD/Doctorate,College degree,Full time employed,United States,yes,Australia,Single,0.0,Yes,Isolated,2.0,0.0,Program A,,No,1.0,3.0,3.0,3.0,3.0,3.0,3.0,2.0,3.0,3.0,4.0,1.0,3.0,7.0,8.0,5.0,5.0,6.0,2.0,4.0,1.0,5.0,6.0,3.0,6.0,6.0,1.0,6.0,6.0,6.0,2.0,4.0,1.0,3.0,3.0,5.0,6.0,4.0,4.0,6.0,6.0,6.0,1.0,6.0,6.0,5.0,4.0,5.0,1.0,6.0,99.0,1.0,1.0,5.0,6.0,4.0,99.0,5.0,1.0,5.0,6.0,99.0,4.0,4.0,1.0,4.0,6.0,6.0,1.0,99.0,6.0,99.0,,6.0,6.0,4.0,6.0,6.0,4.0,4.0,6.0,6.0,6.0,1.0,6.0,5.0,1.0,6.0,4.0,5.0,4.0,4.0,4.0,1.0,1.0,3.0,6.0,1.0,1.0,,4.0,6.0,4.0,1.0,4.0,3.0,,2.9,2.666667,2.666667,4.333333,6.0,6.0,4.333333,5.4
17147,1283,2020-04-11 02:16:22,EN,60,Female,"College degree, bachelor, master",College degree,Full time employed,United States,no,Washington,,0.0,Yes,Life carries on with minor changes,0.0,0.0,,,,2.0,2.0,3.0,4.0,3.0,2.0,3.0,3.0,2.0,1.0,2.0,2.0,2.0,5.0,5.0,3.0,5.0,7.0,7.0,5.0,1.0,5.0,5.0,5.0,5.0,5.0,0.0,3.0,4.0,5.0,2.0,4.0,2.0,4.0,2.0,4.0,5.0,3.0,5.0,4.0,5.0,5.0,3.0,5.0,4.0,5.0,4.0,5.0,2.0,5.0,99.0,2.0,5.0,2.0,1.0,99.0,99.0,5.0,5.0,6.0,6.0,4.0,99.0,2.0,2.0,2.0,2.0,5.0,5.0,3.0,3.0,2.0,,4.0,4.0,5.0,4.0,5.0,4.0,4.0,5.0,5.0,4.0,2.0,3.0,6.0,3.0,5.0,4.0,1.0,2.0,5.0,5.0,5.0,5.0,6.0,3.0,4.0,1.0,,5.0,5.0,5.0,4.0,2.0,4.0,Worry about food supply chain insecurity,2.3,2.0,3.0,3.333333,4.666667,4.333333,4.333333,4.4
17430,709,2020-04-10 19:18:07,EN,37,Female,PhD/Doctorate,College degree,Full time employed,United States,yes,California,Married/cohabiting,0.0,Yes,Isolated,1.0,0.0,Program B,,No,5.0,3.0,5.0,3.0,2.0,4.0,3.0,3.0,4.0,4.0,4.0,2.0,4.0,6.0,9.0,,1.0,4.0,1.0,6.0,,5.0,6.0,6.0,5.0,5.0,0.0,4.0,6.0,6.0,4.0,4.0,1.0,5.0,3.0,5.0,4.0,3.0,4.0,3.0,6.0,6.0,3.0,5.0,5.0,5.0,1.0,6.0,5.0,6.0,99.0,6.0,4.0,5.0,99.0,2.0,99.0,6.0,6.0,1.0,2.0,5.0,6.0,6.0,6.0,6.0,6.0,2.0,2.0,2.0,6.0,6.0,worry about friends who are business owners,6.0,6.0,5.0,6.0,6.0,6.0,6.0,6.0,6.0,6.0,1.0,3.0,5.0,2.0,4.0,3.0,4.0,2.0,6.0,6.0,1.0,1.0,2.0,4.0,2.0,3.0,,1.0,3.0,5.0,4.0,5.0,3.0,,3.8,3.333333,3.333333,3.333333,5.0,4.666667,5.666667,5.9
17511,856,2020-04-10 15:50:10,EN,43,Female,"College degree, bachelor, master",Up to 12 years of school,Self-employed,United States,no,Oregon,Divorced/widowed,1.0,No,Isolated,0.0,1.0,Program B,,No,1.0,1.0,2.0,4.0,5.0,2.0,5.0,4.0,1.0,2.0,2.0,2.0,3.0,6.0,8.0,5.0,5.0,6.0,2.0,8.0,1.0,5.0,5.0,5.0,6.0,6.0,1.0,6.0,6.0,6.0,4.0,5.0,6.0,4.0,1.0,6.0,3.0,3.0,4.0,5.0,5.0,4.0,4.0,5.0,6.0,6.0,1.0,6.0,5.0,2.0,5.0,2.0,4.0,5.0,1.0,99.0,5.0,5.0,4.0,4.0,5.0,1.0,4.0,5.0,3.0,2.0,4.0,1.0,4.0,99.0,5.0,1.0,,6.0,5.0,6.0,6.0,6.0,5.0,6.0,6.0,5.0,6.0,2.0,6.0,1.0,3.0,1.0,5.0,4.0,4.0,2.0,4.0,4.0,5.0,3.0,5.0,1.0,5.0,,1.0,5.0,4.0,6.0,5.0,2.0,"Generally, being a single parent who is now working at home and home schooling my young child, I get very little alone time. This is negatively affecting my overall energy.",1.5,2.333333,2.0,3.0,4.666667,4.666667,6.0,5.7
17561,1709,2020-04-10 15:17:50,EN,36,Male,PhD/Doctorate,Up to 12 years of school,Full time employed,United States,yes,Michigan,Single,0.0,No,Isolated,0.0,0.0,Program A,,Yes,2.0,3.0,2.0,3.0,3.0,3.0,2.0,2.0,2.0,2.0,4.0,3.0,3.0,2.0,2.0,2.0,1.0,1.0,0.0,0.0,0.0,5.0,5.0,5.0,5.0,6.0,2.0,4.0,5.0,4.0,2.0,3.0,3.0,3.0,4.0,3.0,5.0,3.0,3.0,4.0,5.0,3.0,4.0,3.0,4.0,2.0,5.0,3.0,4.0,6.0,99.0,5.0,5.0,5.0,1.0,5.0,99.0,5.0,5.0,5.0,5.0,5.0,5.0,5.0,4.0,5.0,5.0,5.0,5.0,4.0,6.0,6.0,,3.0,5.0,4.0,2.0,2.0,3.0,2.0,2.0,2.0,2.0,2.0,4.0,2.0,4.0,2.0,4.0,5.0,3.0,1.0,4.0,4.0,2.0,4.0,4.0,1.0,3.0,,4.0,3.0,4.0,2.0,4.0,3.0,,2.8,3.333333,3.666667,4.0,4.0,3.333333,2.333333,2.7
17740,695,2020-04-10 12:53:32,EN,39,Female,PhD/Doctorate,Up to 12 years of school,Full time employed,United States,no,ND,Married/cohabiting,2.0,No,Isolated,1.0,2.0,Program A,,Yes,2.0,3.0,4.0,4.0,3.0,2.0,3.0,3.0,3.0,1.0,2.0,3.0,3.0,6.0,7.0,4.0,3.0,8.0,7.0,6.0,1.0,5.0,5.0,5.0,6.0,6.0,0.0,6.0,6.0,6.0,4.0,4.0,4.0,4.0,4.0,4.0,4.0,3.0,4.0,6.0,6.0,6.0,5.0,5.0,4.0,4.0,2.0,5.0,2.0,5.0,4.0,4.0,4.0,5.0,1.0,2.0,6.0,6.0,4.0,5.0,5.0,5.0,5.0,4.0,4.0,4.0,5.0,4.0,2.0,1.0,5.0,3.0,,5.0,5.0,5.0,5.0,5.0,5.0,4.0,5.0,5.0,5.0,1.0,4.0,5.0,1.0,4.0,4.0,2.0,2.0,4.0,3.0,4.0,4.0,3.0,2.0,1.0,2.0,,1.0,5.0,1.0,4.0,2.0,2.0,,2.6,2.666667,3.666667,3.333333,6.0,3.666667,4.666667,4.9
17872,253,2020-04-11 11:16:10,EN,38,Male,"College degree, bachelor, master",PhD/Doctorate,Full time employed,United States,no,Tennessee,Single,0.0,Yes,Life carries on as usual,0.0,0.0,Program A,,Not sure,2.0,2.0,2.0,4.0,3.0,2.0,4.0,4.0,2.0,2.0,2.0,2.0,4.0,,,,,,,,,,,,,,,,,,,,,,,,,,,,,,,,,,,,,,,,,,,,,,,,,,,,,,,,,,,,,,,,,,,,,,,,,,,,,,,,,,,,,,,,,,,,,,,2.1,2.666667,,,,,,
18413,503,2020-04-11 06:39:09,FR,51,Female,"College degree, bachelor, master",College degree,Self-employed,United States,yes,,Married/cohabiting,2.0,Not sure,Life carries on with minor changes,4.0,0.0,,,,,,,,,,,,,,,,,,,,,,,,,,,,,,,,,,,,,,,,,,,,,,,,,,,,,,,,,,,,,,,,,,,,,,,,,,,,,,,,,,,,,,,,,,,,,,,,,,,,,,,,,,,,,,,,,,,,,,
19049,1132,2020-04-10 02:21:14,FILI,24,Female,"College degree, bachelor, master",College degree,Full time employed,United States,no,,Single,0.0,No,Life carries on as usual,1.0,0.0,Program A,,Yes,3.0,3.0,3.0,4.0,3.0,3.0,3.0,2.0,1.0,3.0,2.0,3.0,3.0,6.0,10.0,1.0,1.0,1.0,3.0,4.0,1.0,4.0,6.0,6.0,6.0,6.0,3.0,6.0,6.0,6.0,1.0,2.0,5.0,1.0,1.0,6.0,5.0,5.0,1.0,4.0,6.0,6.0,1.0,6.0,6.0,6.0,3.0,6.0,5.0,99.0,99.0,6.0,2.0,1.0,99.0,2.0,99.0,5.0,2.0,6.0,4.0,6.0,99.0,2.0,99.0,2.0,3.0,4.0,5.0,4.0,4.0,3.0,,6.0,5.0,6.0,6.0,6.0,5.0,6.0,6.0,5.0,6.0,6.0,2.0,6.0,2.0,5.0,6.0,5.0,5.0,6.0,6.0,6.0,6.0,6.0,6.0,6.0,6.0,,3.0,6.0,6.0,6.0,6.0,6.0,,2.8,2.666667,1.0,5.333333,5.333333,6.0,5.333333,5.7
19284,1554,2020-04-10 01:16:05,SME,50,Female,"Some College, short continuing education or equivalent",Up to 12 years of school,Self-employed,United States,yes,,Divorced/widowed,0.0,Yes,Isolated,7.0,2.0,,Program D,Yes,3.0,2.0,4.0,5.0,4.0,1.0,4.0,4.0,3.0,2.0,1.0,2.0,3.0,10.0,8.0,9.0,9.0,10.0,10.0,7.0,10.0,6.0,6.0,5.0,6.0,5.0,8.0,5.0,6.0,5.0,5.0,3.0,5.0,6.0,4.0,5.0,5.0,4.0,3.0,4.0,4.0,4.0,5.0,5.0,4.0,3.0,2.0,5.0,1.0,4.0,6.0,5.0,6.0,6.0,6.0,5.0,5.0,5.0,6.0,6.0,2.0,5.0,5.0,3.0,6.0,5.0,6.0,2.0,6.0,2.0,6.0,6.0,,5.0,5.0,5.0,4.0,5.0,5.0,5.0,2.0,5.0,5.0,6.0,6.0,6.0,6.0,6.0,5.0,5.0,4.0,6.0,5.0,5.0,6.0,6.0,6.0,3.0,4.0,,1.0,1.0,1.0,1.0,1.0,1.0,Me da miedo la escasee de los alimentos por lo tanto el incremento de. Precios y al no encontrar o tener dinero para comprarlos por falta del trabajo la gente empieze a robar en las casas y demás pensar en eso me da pánico,2.2,2.0,4.0,4.333333,4.0,3.666667,4.333333,4.6
19585,608,2020-04-09 18:14:16,FI,37,Female,"Some College, short continuing education or equivalent",,Full time employed,United States,yes,Colorado,Married/cohabiting,,Yes,Isolated,1.0,0.0,Program A,,No,4.0,5.0,5.0,3.0,2.0,4.0,3.0,3.0,5.0,5.0,3.0,4.0,5.0,2.0,6.0,0.0,1.0,0.0,0.0,5.0,0.0,6.0,6.0,6.0,6.0,6.0,0.0,6.0,4.0,6.0,1.0,1.0,3.0,6.0,5.0,4.0,4.0,4.0,4.0,6.0,6.0,6.0,4.0,3.0,4.0,4.0,6.0,6.0,4.0,1.0,99.0,6.0,6.0,4.0,1.0,4.0,99.0,6.0,6.0,6.0,6.0,6.0,1.0,5.0,4.0,6.0,3.0,6.0,3.0,3.0,6.0,6.0,Eniten ahdistaa kaikki,3.0,5.0,4.0,4.0,2.0,5.0,3.0,5.0,5.0,2.0,3.0,1.0,6.0,1.0,5.0,6.0,6.0,2.0,5.0,4.0,5.0,4.0,4.0,4.0,3.0,1.0,,5.0,6.0,6.0,4.0,4.0,2.0,En luota Yhdysvaltain hallitukseen pätkääkään,4.1,4.0,4.666667,3.666667,6.0,3.333333,3.666667,3.8
19866,717,2020-04-09 14:13:49,EN,57,Female,"College degree, bachelor, master",Up to 12 years of school,Full time employed,United States,no,California,Divorced/widowed,1.0,Yes,Life carries on with minor changes,0.0,0.0,Program B,,No,1.0,1.0,1.0,5.0,5.0,1.0,5.0,5.0,1.0,1.0,1.0,1.0,1.0,7.0,8.0,8.0,10.0,5.0,7.0,0.0,9.0,1.0,1.0,1.0,1.0,1.0,10.0,6.0,6.0,6.0,1.0,4.0,3.0,1.0,1.0,6.0,3.0,6.0,1.0,6.0,6.0,1.0,2.0,4.0,5.0,6.0,1.0,6.0,1.0,1.0,1.0,1.0,1.0,1.0,1.0,1.0,1.0,1.0,1.0,1.0,1.0,1.0,1.0,1.0,1.0,1.0,1.0,1.0,1.0,1.0,1.0,1.0,,6.0,6.0,6.0,6.0,6.0,6.0,6.0,6.0,6.0,6.0,3.0,1.0,6.0,1.0,1.0,1.0,1.0,1.0,1.0,6.0,6.0,1.0,1.0,1.0,6.0,3.0,,1.0,6.0,1.0,1.0,1.0,6.0,,1.0,1.0,1.0,5.0,4.333333,4.666667,6.0,6.0
19934,885,2020-04-09 13:53:00,EN,29,Male,Up to 9 years of school,Some College or equivalent,Full time employed,United States,yes,New york,Married/cohabiting,2.0,Yes,Life carries on with minor changes,1.0,2.0,,Program D,Not sure,2.0,1.0,2.0,5.0,4.0,2.0,5.0,5.0,3.0,1.0,1.0,2.0,3.0,6.0,9.0,2.0,5.0,5.0,3.0,1.0,0.0,5.0,5.0,5.0,5.0,5.0,2.0,6.0,5.0,5.0,1.0,2.0,6.0,2.0,2.0,4.0,5.0,4.0,4.0,4.0,2.0,4.0,2.0,5.0,5.0,5.0,2.0,6.0,99.0,4.0,2.0,2.0,2.0,2.0,2.0,2.0,1.0,4.0,4.0,4.0,4.0,6.0,6.0,5.0,2.0,2.0,2.0,2.0,5.0,2.0,4.0,5.0,,6.0,5.0,5.0,6.0,6.0,6.0,6.0,6.0,6.0,5.0,4.0,2.0,5.0,2.0,5.0,2.0,2.0,2.0,5.0,5.0,4.0,5.0,4.0,2.0,2.0,4.0,,2.0,2.0,2.0,2.0,2.0,2.0,,1.6,2.0,2.333333,4.0,3.333333,5.0,5.333333,5.7
20028,868,2020-04-09 13:15:14,DE,49,Male,PhD/Doctorate,Up to 6 years of school,Full time employed,United States,yes,USA,Married/cohabiting,2.0,Yes,Isolated,1.0,0.0,Program A,,No,4.0,4.0,4.0,3.0,3.0,4.0,4.0,3.0,3.0,4.0,5.0,3.0,4.0,6.0,9.0,3.0,3.0,6.0,5.0,5.0,3.0,5.0,5.0,5.0,5.0,5.0,3.0,4.0,5.0,5.0,3.0,4.0,3.0,4.0,4.0,2.0,5.0,3.0,2.0,5.0,5.0,5.0,3.0,4.0,5.0,4.0,2.0,4.0,3.0,5.0,99.0,5.0,4.0,5.0,99.0,5.0,99.0,6.0,4.0,5.0,4.0,6.0,6.0,3.0,3.0,6.0,5.0,3.0,6.0,4.0,5.0,5.0,,4.0,5.0,5.0,5.0,4.0,5.0,5.0,6.0,5.0,5.0,4.0,6.0,5.0,4.0,5.0,4.0,3.0,4.0,5.0,4.0,3.0,2.0,5.0,5.0,1.0,4.0,,5.0,6.0,6.0,6.0,6.0,5.0,"1.) Verlangsamung, mehr Ruhe, weniger Druck durch Termine. 2.) Mehr Wertschaetzung fuer die wichtigen Menschen im Leben.",3.4,4.0,4.333333,4.333333,5.0,4.333333,4.333333,4.9
20170,8618,2020-04-09 14:28:51,EN,23,Female,"College degree, bachelor, master",College degree,Student,United States,no,Pennsylvania,Single,0.0,Yes,Life carries on with minor changes,2.0,0.0,,Program D,No,5.0,5.0,5.0,1.0,1.0,5.0,1.0,1.0,5.0,5.0,3.0,5.0,5.0,7.0,10.0,,0.0,,5.0,10.0,,5.0,6.0,5.0,5.0,5.0,0.0,6.0,6.0,6.0,3.0,4.0,3.0,5.0,5.0,2.0,4.0,1.0,5.0,4.0,6.0,3.0,3.0,6.0,6.0,3.0,2.0,4.0,6.0,5.0,99.0,6.0,2.0,5.0,2.0,3.0,1.0,6.0,6.0,4.0,6.0,5.0,6.0,6.0,2.0,4.0,3.0,4.0,5.0,1.0,6.0,4.0,,4.0,2.0,3.0,3.0,3.0,6.0,6.0,2.0,4.0,5.0,1.0,1.0,1.0,2.0,2.0,5.0,2.0,2.0,5.0,3.0,3.0,3.0,3.0,6.0,2.0,1.0,,4.0,3.0,4.0,3.0,4.0,1.0,,5.0,4.333333,5.0,2.333333,4.333333,5.333333,4.0,3.8
20260,945,2020-04-09 11:42:23,FR,31,Female,PhD/Doctorate,College degree,Full time employed,United States,yes,Région du pays de résidence? Ou dorigine?,Married/cohabiting,0.0,Yes,Isolated,1.0,0.0,,Program D,No,3.0,2.0,3.0,5.0,3.0,4.0,5.0,5.0,1.0,3.0,1.0,1.0,1.0,6.0,8.0,3.0,5.0,6.0,6.0,9.0,4.0,4.0,4.0,4.0,6.0,6.0,2.0,6.0,5.0,5.0,2.0,5.0,1.0,4.0,4.0,5.0,5.0,4.0,3.0,5.0,4.0,4.0,2.0,4.0,4.0,3.0,5.0,4.0,2.0,6.0,99.0,5.0,4.0,2.0,1.0,2.0,99.0,5.0,2.0,4.0,3.0,4.0,5.0,2.0,1.0,2.0,3.0,2.0,2.0,2.0,2.0,4.0,,6.0,5.0,5.0,6.0,6.0,5.0,5.0,6.0,5.0,6.0,2.0,1.0,5.0,1.0,4.0,2.0,5.0,1.0,5.0,2.0,2.0,5.0,4.0,5.0,1.0,3.0,,2.0,2.0,2.0,5.0,2.0,4.0,,2.2,1.0,3.333333,4.333333,4.333333,4.333333,3.0,5.5
20289,3829,2020-04-09 12:16:42,EN,79,Female,"College degree, bachelor, master",Up to 12 years of school,Retired,United States,no,WI,Married/cohabiting,1.0,Yes,Isolated,1.0,0.0,,Program D,No,3.0,4.0,3.0,5.0,3.0,3.0,5.0,4.0,2.0,3.0,3.0,2.0,5.0,5.0,9.0,5.0,9.0,9.0,9.0,9.0,2.0,5.0,5.0,5.0,5.0,6.0,3.0,6.0,5.0,6.0,2.0,5.0,4.0,5.0,3.0,3.0,6.0,2.0,3.0,5.0,4.0,2.0,2.0,5.0,6.0,4.0,4.0,5.0,4.0,2.0,99.0,99.0,4.0,5.0,3.0,2.0,99.0,6.0,2.0,1.0,4.0,3.0,99.0,3.0,1.0,2.0,5.0,5.0,4.0,1.0,3.0,4.0,,6.0,5.0,6.0,6.0,6.0,4.0,6.0,6.0,5.0,6.0,4.0,5.0,6.0,,5.0,5.0,2.0,2.0,5.0,5.0,5.0,6.0,5.0,5.0,5.0,5.0,,4.0,6.0,3.0,2.0,2.0,2.0,"Very strongly feel that locally I am  in contact with the friends and family more than usual.  The ""threat"" of the virus effects want us to draw support from others.  Too bad that it takes a threat to make us realize how much we need others.",2.5,3.333333,4.0,4.0,3.666667,5.333333,4.0,5.6
20342,119457,2020-04-10 19:58:15,RO,26,Female,"College degree, bachelor, master",College degree,Not employed,United States,yes,Romania,Married/cohabiting,0.0,Yes,Isolated,1.0,0.0,Program A,,No,2.0,3.0,4.0,3.0,2.0,3.0,3.0,3.0,3.0,3.0,3.0,3.0,3.0,3.0,7.0,5.0,5.0,5.0,7.0,7.0,5.0,4.0,5.0,4.0,5.0,5.0,4.0,6.0,6.0,6.0,2.0,3.0,4.0,6.0,4.0,4.0,3.0,1.0,6.0,4.0,6.0,6.0,2.0,4.0,3.0,6.0,4.0,4.0,99.0,99.0,99.0,6.0,4.0,2.0,99.0,2.0,99.0,6.0,4.0,5.0,5.0,6.0,99.0,3.0,5.0,4.0,4.0,4.0,2.0,2.0,6.0,6.0,,4.0,4.0,3.0,5.0,6.0,4.0,6.0,5.0,5.0,4.0,3.0,3.0,5.0,3.0,4.0,3.0,2.0,3.0,5.0,4.0,2.0,4.0,4.0,5.0,3.0,4.0,,4.0,5.0,5.0,5.0,5.0,3.0,,3.1,3.0,4.333333,1.666667,5.333333,4.0,4.333333,4.6
20389,258,2020-04-10 10:27:32,ZH-T,37,Female,"College degree, bachelor, master",College degree,Full time employed,United States,no,Washington state,Married/cohabiting,1.0,No,Isolated,1.0,1.0,Program B,,,3.0,4.0,4.0,3.0,2.0,3.0,3.0,2.0,1.0,1.0,2.0,1.0,4.0,,,,,,,,,,,,,,,,,,,,,,,,,,,,,,,,,,,,,,,,,,,,,,,,,,,,,,,,,,,,,,,,,,,,,,,,,,,,,,,,,,,,,,,,,,,,,,,3.0,2.333333,,,,,,
20392,2517,2020-04-09 11:04:15,BG,52,Female,"College degree, bachelor, master",College degree,Student,United States,yes,Arkansas,Divorced/widowed,0.0,Yes,Isolated,0.0,0.0,Program A,,No,3.0,2.0,3.0,5.0,4.0,5.0,4.0,3.0,2.0,2.0,3.0,2.0,3.0,7.0,9.0,3.0,8.0,5.0,8.0,5.0,6.0,6.0,6.0,6.0,6.0,6.0,5.0,6.0,6.0,5.0,2.0,4.0,3.0,2.0,2.0,5.0,6.0,6.0,2.0,4.0,5.0,4.0,1.0,4.0,6.0,5.0,3.0,5.0,6.0,2.0,99.0,6.0,2.0,6.0,1.0,99.0,99.0,6.0,3.0,6.0,6.0,6.0,4.0,4.0,2.0,2.0,2.0,5.0,2.0,1.0,5.0,5.0,<U+0422><U+0440><U+0435><U+0432><U+043E><U+0436><U+0430> <U+0441><U+0435> <U+0434><U+0430><U+043B><U+0438> <U+0449><U+0435> <U+0441><U+0435> <U+043E><U+0442><U+044A><U+0440><U+0432><U+0435><U+043C> <U+043E><U+0442> <U+0442><U+043E><U+0437><U+0438> <U+0432><U+0438><U+0440><U+0443><U+0441>,3.0,5.0,5.0,4.0,6.0,5.0,6.0,4.0,5.0,3.0,3.0,2.0,6.0,3.0,1.0,4.0,1.0,1.0,5.0,4.0,3.0,2.0,2.0,5.0,3.0,3.0,,5.0,4.0,5.0,4.0,5.0,5.0,,2.5,2.666667,2.0,5.666667,4.333333,5.333333,4.666667,4.6
20495,657,2020-04-09 09:50:51,EN,37,Female,PhD/Doctorate,PhD/Doctorate,Part time employed,United States,no,MA,Single,1.0,No,Isolated,0.0,1.0,,Program D,No,3.0,4.0,5.0,3.0,3.0,2.0,3.0,2.0,4.0,3.0,4.0,2.0,4.0,7.0,8.0,2.0,6.0,6.0,6.0,6.0,4.0,5.0,5.0,5.0,6.0,6.0,0.0,5.0,5.0,5.0,5.0,4.0,5.0,2.0,3.0,6.0,3.0,4.0,3.0,4.0,5.0,4.0,3.0,5.0,5.0,4.0,3.0,5.0,6.0,6.0,4.0,6.0,4.0,6.0,2.0,99.0,5.0,6.0,4.0,5.0,5.0,5.0,5.0,5.0,3.0,5.0,6.0,4.0,3.0,3.0,6.0,5.0,,4.0,5.0,5.0,5.0,4.0,5.0,4.0,5.0,5.0,4.0,3.0,5.0,4.0,5.0,5.0,4.0,3.0,2.0,4.0,5.0,3.0,4.0,4.0,4.0,2.0,4.0,,4.0,5.0,5.0,4.0,4.0,4.0,,3.4,3.333333,2.0,3.666667,4.333333,4.666667,4.333333,4.6
20780,730,2020-04-09 07:58:56,EN,33,Female,"College degree, bachelor, master",Up to 12 years of school,Full time employed,United States,no,New Jersey,Single,0.0,Yes,Isolated,0.0,0.0,,Program D,No,4.0,3.0,4.0,4.0,3.0,3.0,4.0,3.0,4.0,2.0,5.0,2.0,5.0,7.0,9.0,3.0,7.0,5.0,5.0,8.0,3.0,5.0,6.0,5.0,5.0,5.0,0.0,5.0,5.0,5.0,4.0,4.0,2.0,3.0,3.0,5.0,5.0,3.0,2.0,4.0,6.0,5.0,3.0,6.0,5.0,5.0,3.0,5.0,1.0,3.0,99.0,2.0,4.0,4.0,5.0,99.0,99.0,4.0,5.0,5.0,5.0,5.0,2.0,1.0,3.0,6.0,5.0,2.0,2.0,2.0,5.0,2.0,,5.0,5.0,5.0,6.0,6.0,5.0,6.0,6.0,5.0,5.0,2.0,5.0,5.0,4.0,5.0,4.0,4.0,4.0,4.0,4.0,2.0,2.0,4.0,5.0,5.0,2.0,,5.0,5.0,4.0,2.0,3.0,5.0,,3.0,4.0,2.666667,4.333333,5.0,5.0,4.666667,5.4
21943,1390,2020-04-09 23:31:54,EN,20,Female,"Some College, short continuing education or equivalent",College degree,Student,United States,no,Texas,Single,0.0,Yes,Life carries on with minor changes,2.0,0.0,,Program D,No,3.0,4.0,2.0,4.0,4.0,2.0,4.0,4.0,3.0,2.0,3.0,1.0,5.0,4.0,6.0,6.0,8.0,3.0,5.0,5.0,9.0,2.0,6.0,5.0,6.0,5.0,7.0,6.0,6.0,6.0,3.0,2.0,2.0,2.0,2.0,3.0,5.0,5.0,3.0,5.0,6.0,5.0,4.0,2.0,5.0,5.0,3.0,5.0,99.0,2.0,99.0,99.0,3.0,5.0,2.0,1.0,99.0,6.0,5.0,6.0,6.0,6.0,2.0,3.0,2.0,5.0,2.0,2.0,4.0,2.0,5.0,6.0,,6.0,6.0,6.0,5.0,6.0,6.0,6.0,3.0,6.0,6.0,5.0,6.0,6.0,6.0,6.0,6.0,2.0,2.0,6.0,5.0,2.0,5.0,6.0,4.0,5.0,5.0,,5.0,3.0,4.0,2.0,3.0,5.0,,2.4,3.0,2.666667,4.666667,5.333333,3.333333,4.666667,5.6
22124,2159,2020-04-08 21:35:24,SME,56,Female,PhD/Doctorate,Some College or equivalent,Full time employed,United States,yes,Texas,Divorced/widowed,1.0,No,Isolated,1.0,1.0,,Program D,No,5.0,2.0,3.0,5.0,4.0,2.0,5.0,4.0,2.0,2.0,4.0,4.0,5.0,7.0,9.0,2.0,9.0,5.0,2.0,2.0,5.0,4.0,4.0,4.0,6.0,6.0,2.0,6.0,6.0,6.0,1.0,2.0,5.0,5.0,5.0,5.0,4.0,5.0,2.0,5.0,6.0,5.0,1.0,6.0,1.0,5.0,1.0,5.0,3.0,2.0,1.0,2.0,5.0,1.0,1.0,2.0,1.0,3.0,4.0,5.0,4.0,5.0,2.0,2.0,5.0,2.0,1.0,2.0,4.0,1.0,5.0,4.0,Que vuelva a suceder. Que haya sido provocado.,4.0,5.0,4.0,4.0,4.0,5.0,3.0,5.0,5.0,4.0,1.0,5.0,5.0,4.0,5.0,3.0,1.0,1.0,5.0,6.0,5.0,5.0,5.0,1.0,5.0,1.0,Yoga. Movimiento. Meditacion. Caminata.,1.0,1.0,1.0,2.0,1.0,5.0,"Sensación de no estar viviendo en la realidad, como si esto fuera un sueño.",2.2,4.333333,4.0,4.666667,5.333333,4.333333,5.333333,4.3
22137,1392,2020-04-09 20:58:24,SV,38,Male,"Some College, short continuing education or equivalent",College degree,Full time employed,United States,yes,California,Married/cohabiting,4.0,No,Isolated,1.0,3.0,,Program D,,,,,,,,,,,,,,,,,,,,,,,,,,,,,,,,,,,,,,,,,,,,,,,,,,,,,,,,,,,,,,,,,,,,,,,,,,,,,,,,,,,,,,,,,,,,,,,,,,,,,,,,,,,,,,,,,,,,
22145,1350,2020-04-09 20:45:36,FI,43,Female,"College degree, bachelor, master",College degree,Part time employed,United States,yes,District of Columbia,Married/cohabiting,0.0,Yes,Isolated,1.0,0.0,Program A,,No,2.0,4.0,3.0,4.0,2.0,3.0,2.0,4.0,3.0,1.0,1.0,1.0,3.0,6.0,8.0,2.0,4.0,3.0,2.0,6.0,2.0,4.0,6.0,5.0,6.0,5.0,3.0,5.0,6.0,5.0,2.0,4.0,5.0,6.0,2.0,4.0,3.0,3.0,4.0,2.0,6.0,4.0,2.0,5.0,6.0,6.0,4.0,3.0,1.0,4.0,99.0,4.0,3.0,3.0,1.0,2.0,99.0,6.0,5.0,6.0,6.0,6.0,2.0,2.0,3.0,3.0,4.0,1.0,5.0,1.0,4.0,5.0,,6.0,5.0,5.0,6.0,6.0,6.0,6.0,6.0,4.0,5.0,2.0,2.0,6.0,4.0,4.0,4.0,1.0,1.0,6.0,3.0,4.0,5.0,5.0,5.0,1.0,5.0,,1.0,5.0,6.0,4.0,5.0,2.0,,2.8,1.666667,3.666667,3.0,4.0,5.333333,4.0,5.5
22174,3155,2020-04-09 20:08:52,EN,73,Female,"Some College, short continuing education or equivalent",Up to 12 years of school,Retired,United States,no,Washington state,Married/cohabiting,0.0,Yes,Life carries on with minor changes,2.0,0.0,Program B,,No,1.0,3.0,1.0,5.0,4.0,3.0,4.0,3.0,2.0,1.0,1.0,2.0,2.0,8.0,10.0,7.0,9.0,9.0,9.0,1.0,10.0,3.0,3.0,3.0,4.0,6.0,9.0,6.0,6.0,5.0,5.0,5.0,1.0,1.0,1.0,5.0,6.0,6.0,1.0,6.0,5.0,5.0,1.0,5.0,5.0,4.0,1.0,5.0,2.0,1.0,3.0,99.0,2.0,5.0,6.0,3.0,99.0,3.0,1.0,4.0,3.0,3.0,99.0,3.0,2.0,2.0,3.0,2.0,99.0,1.0,3.0,6.0,,6.0,6.0,4.0,6.0,6.0,5.0,6.0,6.0,5.0,6.0,5.0,6.0,6.0,5.0,6.0,3.0,1.0,1.0,3.0,6.0,3.0,5.0,4.0,6.0,6.0,5.0,,4.0,3.0,4.0,3.0,1.0,5.0,"I pray more often. Check on friends well-being more often and doing more projects that l have procrastinated on.  I have listened to church services in other countries for the first time. I was sent this survey by a Swedish friend and now l am sending it to family in Germany, Japan, Denmark, and the Philippines",1.9,1.666667,1.333333,6.0,5.333333,5.333333,5.0,5.6
22178,3595,2020-04-08 20:10:14,SV,50,Female,Up to 12 years of school,Up to 12 years of school,Self-employed,United States,no,,Married/cohabiting,1.0,Yes,Isolated,1.0,0.0,,,,2.0,,3.0,3.0,,3.0,3.0,4.0,2.0,3.0,5.0,3.0,4.0,5.0,8.0,0.0,7.0,,,,,4.0,4.0,4.0,6.0,6.0,1.0,4.0,4.0,5.0,3.0,3.0,3.0,4.0,2.0,3.0,5.0,4.0,3.0,4.0,4.0,4.0,3.0,4.0,5.0,5.0,3.0,5.0,5.0,3.0,3.0,99.0,3.0,5.0,3.0,4.0,99.0,6.0,4.0,4.0,3.0,6.0,99.0,99.0,3.0,5.0,3.0,2.0,3.0,3.0,6.0,5.0,,5.0,,3.0,4.0,4.0,4.0,4.0,4.0,,5.0,,3.0,4.0,,4.0,4.0,,4.0,4.0,4.0,,,4.0,4.0,4.0,,,,,,,,,,2.625,4.0,3.333333,4.333333,4.0,4.333333,4.666667,4.125
22193,1560,2020-04-08 19:10:19,EN,36,Male,"College degree, bachelor, master",Up to 12 years of school,Full time employed,United States,no,Pennsylvania,Married/cohabiting,0.0,No,Isolated,1.0,0.0,Program A,,No,3.0,2.0,3.0,5.0,3.0,3.0,4.0,4.0,2.0,1.0,1.0,1.0,3.0,2.0,8.0,2.0,4.0,,5.0,8.0,0.0,1.0,4.0,2.0,4.0,5.0,0.0,6.0,5.0,6.0,1.0,1.0,5.0,6.0,5.0,5.0,5.0,5.0,2.0,6.0,6.0,6.0,4.0,2.0,2.0,6.0,1.0,6.0,1.0,1.0,99.0,1.0,4.0,5.0,1.0,5.0,99.0,5.0,1.0,4.0,4.0,4.0,1.0,1.0,2.0,2.0,5.0,1.0,2.0,1.0,5.0,1.0,,6.0,6.0,6.0,6.0,6.0,6.0,6.0,4.0,6.0,6.0,2.0,3.0,5.0,3.0,4.0,3.0,6.0,3.0,6.0,4.0,1.0,3.0,5.0,5.0,1.0,2.0,,5.0,5.0,2.0,1.0,2.0,1.0,,2.2,1.666667,4.333333,5.0,6.0,2.333333,6.0,5.8
22194,295,2020-04-09 18:48:13,FR,42,Female,"College degree, bachelor, master",College degree,Self-employed,United States,yes,,Married/cohabiting,2.0,Yes,Life carries on with minor changes,1.0,2.0,Program A,,,,,,,,,,,,,,,,,,,,,,,,,,,,,,,,,,,,,,,,,,,,,,,,,,,,,,,,,,,,,,,,,,,,,,,,,,,,,,,,,,,,,,,,,,,,,,,,,,,,,,,,,,,,,,,,,,,,,
22228,919,2020-04-08 18:01:24,EN,66,Male,"College degree, bachelor, master",Up to 12 years of school,Full time employed,United States,no,California,Divorced/widowed,0.0,Yes,Life carries on with minor changes,1.0,0.0,,,,2.0,2.0,2.0,4.0,4.0,2.0,4.0,4.0,2.0,2.0,3.0,2.0,3.0,8.0,9.0,4.0,7.0,8.0,8.0,9.0,2.0,4.0,4.0,4.0,5.0,5.0,1.0,5.0,3.0,4.0,,3.0,4.0,5.0,1.0,6.0,5.0,5.0,3.0,4.0,5.0,4.0,3.0,5.0,5.0,4.0,4.0,5.0,2.0,4.0,99.0,99.0,3.0,4.0,1.0,5.0,99.0,3.0,1.0,4.0,5.0,4.0,1.0,4.0,1.0,3.0,5.0,3.0,1.0,2.0,4.0,2.0,,3.0,4.0,2.0,4.0,4.0,4.0,4.0,3.0,4.0,4.0,4.0,3.0,4.0,1.0,4.0,2.0,1.0,1.0,1.0,2.0,1.0,1.0,2.0,4.0,1.0,4.0,,3.0,4.0,4.0,4.0,3.0,2.0,,2.0,2.666667,2.333333,4.666667,4.333333,4.666667,4.0,3.6
22237,339,2020-04-09 17:41:42,EN,50,Female,"Some College, short continuing education or equivalent",Some College or equivalent,Not employed,United States,no,Utah,Married/cohabiting,4.0,Yes,Isolated,2.0,0.0,,,,3.0,2.0,3.0,4.0,4.0,1.0,4.0,4.0,2.0,1.0,1.0,1.0,2.0,,,,,,,,,,,,,,,,,,,,,,,,,,,,,,,,,,,,,,,,,,,,,,,,,,,,,,,,,,,,,,,,,,,,,,,,,,,,,,,,,,,,,,,,,,,,,,,2.0,1.333333,,,,,,
22242,6650,2020-04-08 19:16:56,EN,43,Female,"College degree, bachelor, master",PhD/Doctorate,Full time employed,United States,no,Texas,Married/cohabiting,1.0,Yes,Isolated,2.0,0.0,Program A,,No,2.0,2.0,2.0,3.0,2.0,3.0,1.0,3.0,4.0,3.0,1.0,3.0,2.0,6.0,9.0,0.0,5.0,7.0,2.0,9.0,0.0,5.0,6.0,5.0,6.0,6.0,0.0,5.0,5.0,6.0,1.0,2.0,1.0,2.0,4.0,4.0,2.0,1.0,6.0,5.0,6.0,5.0,4.0,4.0,5.0,2.0,4.0,4.0,6.0,3.0,4.0,4.0,4.0,2.0,1.0,6.0,99.0,2.0,4.0,6.0,5.0,3.0,2.0,1.0,1.0,1.0,1.0,2.0,1.0,1.0,5.0,1.0,,4.0,5.0,2.0,3.0,5.0,2.0,4.0,6.0,4.0,4.0,1.0,1.0,5.0,1.0,4.0,6.0,2.0,3.0,5.0,3.0,1.0,2.0,5.0,5.0,4.0,3.0,,2.0,2.0,6.0,3.0,1.0,1.0,Loss of husband's job.  They might open back up...they might not.,3.1,2.0,3.0,1.333333,5.333333,4.0,3.0,3.9
22276,326,2020-04-09 16:58:16,SV,43,Female,"College degree, bachelor, master",Up to 12 years of school,Part time employed,United States,yes,,Married/cohabiting,2.0,No,Isolated,1.0,2.0,,Program C,No,3.0,4.0,3.0,5.0,4.0,3.0,4.0,2.0,3.0,2.0,4.0,2.0,4.0,8.0,9.0,8.0,7.0,7.0,8.0,8.0,6.0,3.0,3.0,3.0,5.0,5.0,,5.0,4.0,5.0,5.0,4.0,6.0,3.0,3.0,3.0,4.0,4.0,3.0,4.0,4.0,4.0,3.0,5.0,4.0,5.0,3.0,4.0,,,,,,,,,,,,,,,,,,,,,,,,,,,,,,,,,,,,,,,,,,,,,,,,,,,,,,,,,,,,2.7,3.333333,3.333333,4.0,4.0,4.333333,4.333333,
22280,2504,2020-04-08 17:31:16,EN,37,Female,PhD/Doctorate,College degree,Self-employed,United States,no,California,Single,0.0,Yes,Isolated,0.0,0.0,,Program C,No,3.0,5.0,4.0,3.0,3.0,2.0,3.0,3.0,3.0,3.0,3.0,3.0,3.0,5.0,9.0,5.0,4.0,5.0,4.0,7.0,1.0,5.0,5.0,5.0,6.0,5.0,1.0,5.0,5.0,5.0,3.0,4.0,1.0,5.0,5.0,1.0,4.0,1.0,6.0,5.0,5.0,5.0,3.0,3.0,6.0,6.0,1.0,4.0,4.0,5.0,99.0,6.0,5.0,4.0,6.0,99.0,99.0,5.0,5.0,6.0,6.0,99.0,1.0,2.0,2.0,5.0,5.0,3.0,4.0,2.0,6.0,99.0,I previously felt limited and now feel even more limited,6.0,4.0,5.0,6.0,6.0,5.0,6.0,6.0,5.0,6.0,,5.0,6.0,5.0,6.0,5.0,4.0,4.0,4.0,4.0,4.0,5.0,5.0,6.0,6.0,5.0,Solitary outdoor exercise helps a lot,5.0,4.0,6.0,5.0,5.0,3.0,"I have epilepsy and I am concerned about being more vulnerable to the disease.  I wasn't able to drive before this and felt limited, and now that so many things I can get to are closed, I feel even more limited and it is frustrating.  I live alone with a cat, which makes things easier and harder at the same time.  More positively, I have scientific training and that helps me evaluate news about the virus and sometimes conflicting advice.",3.2,3.0,5.333333,2.0,5.0,4.333333,5.333333,5.5
22298,1222,2020-04-09 16:58:26,EN,20,Female,Up to 12 years of school,Up to 12 years of school,Full time employed,United States,yes,"NSW, Australia",Single,0.0,Yes,Isolated,2.0,2.0,Program A,,No,4.0,3.0,4.0,4.0,3.0,3.0,2.0,3.0,3.0,2.0,4.0,5.0,5.0,6.0,4.0,,0.0,2.0,1.0,4.0,1.0,6.0,6.0,6.0,6.0,6.0,2.0,5.0,6.0,6.0,5.0,4.0,3.0,5.0,5.0,3.0,6.0,5.0,3.0,6.0,6.0,6.0,2.0,4.0,6.0,4.0,3.0,5.0,4.0,4.0,99.0,6.0,6.0,6.0,5.0,3.0,1.0,5.0,6.0,6.0,6.0,6.0,99.0,6.0,6.0,6.0,6.0,6.0,4.0,3.0,6.0,6.0,,,,,,,,,,,,,,,,,,,,,,,,,,,,,,,,,,,,3.1,4.666667,4.666667,5.0,6.0,5.0,4.333333,
22312,146,2020-04-09 16:31:15,EN,40,Female,"College degree, bachelor, master",Up to 12 years of school,Not employed,United States,no,Utah,Married/cohabiting,2.0,,Isolated,2.0,2.0,,,,,,,,,,,,,,,,,,,,,,,,,,,,,,,,,,,,,,,,,,,,,,,,,,,,,,,,,,,,,,,,,,,,,,,,,,,,,,,,,,,,,,,,,,,,,,,,,,,,,,,,,,,,,,,,,,,,,,
22469,475,2020-04-08 15:18:37,EN,37,Female,"College degree, bachelor, master",Up to 12 years of school,Student,United States,no,Utah,Married/cohabiting,2.0,No,Isolated,1.0,2.0,,Program D,No,3.0,3.0,5.0,2.0,1.0,5.0,3.0,2.0,3.0,4.0,1.0,2.0,1.0,2.0,7.0,1.0,7.0,7.0,0.0,8.0,0.0,6.0,6.0,6.0,6.0,6.0,0.0,6.0,6.0,6.0,2.0,1.0,4.0,6.0,5.0,5.0,2.0,2.0,6.0,4.0,3.0,2.0,5.0,2.0,4.0,6.0,2.0,6.0,3.0,6.0,5.0,6.0,5.0,1.0,99.0,6.0,6.0,5.0,1.0,6.0,5.0,5.0,1.0,1.0,3.0,4.0,1.0,1.0,2.0,1.0,6.0,2.0,,3.0,4.0,3.0,3.0,4.0,4.0,4.0,5.0,4.0,3.0,3.0,1.0,1.0,1.0,1.0,6.0,4.0,5.0,3.0,4.0,6.0,5.0,5.0,5.0,1.0,3.0,,4.0,4.0,6.0,1.0,4.0,1.0,,3.9,1.333333,4.333333,1.666667,3.0,2.666667,5.666667,3.7
22866,970,2020-04-08 13:57:58,EN,57,Female,"College degree, bachelor, master",Some College or equivalent,Self-employed,United States,no,RI,Single,0.0,Not sure,Isolated,0.0,0.0,,Program D,No,2.0,3.0,3.0,3.0,3.0,4.0,3.0,2.0,2.0,2.0,3.0,2.0,2.0,4.0,6.0,2.0,3.0,6.0,4.0,7.0,1.0,5.0,5.0,5.0,4.0,5.0,0.0,5.0,5.0,5.0,3.0,3.0,4.0,5.0,4.0,3.0,5.0,3.0,3.0,6.0,6.0,5.0,5.0,4.0,4.0,3.0,3.0,5.0,99.0,5.0,99.0,99.0,4.0,4.0,99.0,99.0,99.0,5.0,3.0,6.0,6.0,6.0,1.0,2.0,1.0,4.0,4.0,6.0,3.0,3.0,5.0,4.0,Touch starvation| worried my old will is outdated| worried about pets if I get seriously ill,5.0,6.0,5.0,4.0,4.0,5.0,4.0,4.0,6.0,4.0,2.0,5.0,4.0,5.0,5.0,6.0,1.0,1.0,4.0,5.0,4.0,4.0,5.0,6.0,4.0,2.0,Reading old favorite books| gardening| seeing spring bloom all help,3.0,5.0,4.0,6.0,6.0,4.0,The idea that this might help bring down late stage capitalism and Trump/Johnsons leadership are appealing,2.9,2.333333,4.333333,4.0,5.666667,3.333333,4.0,4.7
22992,2255,2020-04-08 13:50:52,SQI,24,Female,"Some College, short continuing education or equivalent",Up to 9 years of school,Part time employed,United States,yes,New York,Married/cohabiting,0.0,No,Life carries on with minor changes,4.0,0.0,,Program D,No,3.0,2.0,3.0,3.0,3.0,3.0,3.0,3.0,2.0,3.0,2.0,1.0,1.0,5.0,8.0,2.0,4.0,3.0,3.0,4.0,4.0,4.0,2.0,2.0,2.0,2.0,5.0,4.0,5.0,4.0,4.0,4.0,4.0,4.0,4.0,4.0,3.0,4.0,3.0,4.0,4.0,6.0,2.0,4.0,4.0,5.0,2.0,4.0,,,,,,,,4.0,,,4.0,,,,3.0,3.0,,,,,,,,,,,,,,,,,,,,,,,,,,,,,,,,,,,,,,,,,,,,2.8,1.333333,3.666667,3.666667,4.666667,4.333333,4.666667,
23116,631,2020-04-09 12:52:43,SV,43,Female,"College degree, bachelor, master",College degree,Full time employed,United States,yes,,Married/cohabiting,0.0,Yes,Isolated,2.0,0.0,,Program C,No,3.0,4.0,2.0,2.0,3.0,4.0,3.0,2.0,3.0,2.0,4.0,3.0,4.0,5.0,7.0,5.0,6.0,7.0,8.0,6.0,5.0,2.0,5.0,5.0,4.0,4.0,5.0,4.0,4.0,4.0,4.0,2.0,4.0,2.0,2.0,5.0,5.0,4.0,4.0,4.0,4.0,4.0,4.0,4.0,4.0,4.0,4.0,4.0,3.0,4.0,99.0,5.0,3.0,5.0,99.0,4.0,99.0,5.0,4.0,6.0,6.0,6.0,3.0,5.0,4.0,4.0,5.0,4.0,4.0,3.0,4.0,6.0,,,,,,,,,,,,,,,,,,,,,,,,,,,,,,,,,,,,3.2,3.666667,2.0,4.0,4.0,3.666667,3.666667,
23124,682,2020-04-09 12:51:38,EN,67,Male,"College degree, bachelor, master",Up to 12 years of school,Retired,United States,no,Pennsylvania,Married/cohabiting,0.0,No,Life carries on with minor changes,1.0,0.0,Program A,,No,5.0,1.0,1.0,5.0,5.0,,5.0,5.0,1.0,1.0,1.0,1.0,2.0,2.0,5.0,6.0,7.0,3.0,5.0,0.0,7.0,2.0,2.0,2.0,5.0,5.0,6.0,5.0,2.0,3.0,1.0,1.0,2.0,2.0,1.0,6.0,5.0,5.0,2.0,5.0,2.0,5.0,5.0,2.0,2.0,2.0,4.0,5.0,1.0,99.0,99.0,99.0,2.0,6.0,1.0,1.0,99.0,5.0,2.0,2.0,2.0,1.0,99.0,99.0,1.0,1.0,5.0,2.0,1.0,3.0,4.0,4.0,Golfing,,,,,,,,,,,,,,,,,,,,,,,,,,,,,,,,,,,1.444444,1.333333,1.333333,5.0,4.0,2.0,3.333333,
23217,26380,2020-04-09 19:37:03,EN,27,Male,"College degree, bachelor, master",PhD/Doctorate,Full time employed,United States,no,,,,Yes,Isolated,1.0,0.0,,Program C,No,2.0,2.0,3.0,3.0,5.0,1.0,4.0,3.0,3.0,2.0,2.0,1.0,3.0,6.0,9.0,5.0,5.0,5.0,5.0,4.0,5.0,3.0,5.0,3.0,5.0,5.0,4.0,5.0,5.0,4.0,2.0,4.0,2.0,,,,,,,,,,,,,,,,,,,,,,,,,,,,,,,,,,,,,,,,,,,,,,,,,,,,,,,,,,,,,,,,,,,,,,,,,,,2.2,2.0,,,,,,
23348,1030,2020-04-09 12:02:14,EN,21,Male,"Some College, short continuing education or equivalent",College degree,Not employed,United States,no,New Jersey,Single,0.0,No,Life carries on with minor changes,0.0,,,Program D,No,2.0,4.0,3.0,3.0,2.0,2.0,4.0,3.0,2.0,1.0,1.0,2.0,2.0,5.0,9.0,4.0,6.0,7.0,7.0,7.0,8.0,4.0,5.0,4.0,3.0,3.0,5.0,4.0,5.0,4.0,2.0,4.0,4.0,3.0,4.0,4.0,3.0,3.0,4.0,5.0,6.0,6.0,4.0,4.0,5.0,4.0,2.0,5.0,99.0,4.0,99.0,4.0,4.0,2.0,2.0,2.0,99.0,4.0,3.0,4.0,4.0,5.0,2.0,4.0,2.0,2.0,3.0,2.0,3.0,2.0,4.0,5.0,,,,,,,,,,,,,,,,,,,,,,,,,,,,,,,,,,,,2.6,1.666667,3.333333,3.0,5.666667,4.0,4.666667,
23362,538,2020-04-09 11:49:23,EN,21,Female,"Some College, short continuing education or equivalent",College degree,Student,United States,no,New jersey,Single,0.0,Yes,Life carries on with minor changes,3.0,0.0,,Program D,No,3.0,3.0,4.0,3.0,2.0,3.0,3.0,1.0,3.0,3.0,3.0,3.0,3.0,7.0,10.0,4.0,5.0,4.0,8.0,10.0,2.0,6.0,6.0,6.0,5.0,6.0,1.0,6.0,6.0,6.0,1.0,3.0,4.0,3.0,2.0,5.0,4.0,5.0,3.0,4.0,5.0,5.0,2.0,4.0,5.0,5.0,5.0,4.0,,,,,,,,,,,,,,,,,,,,,,,,,,,,,,,,,,,,,,,,,,,,,,,,,,,,,,,,,,,,3.4,3.0,2.333333,4.333333,4.666667,4.666667,3.666667,
23385,595,2020-04-08 11:42:16,SV,35,Female,"College degree, bachelor, master",College degree,Full time employed,United States,yes,,Married/cohabiting,3.0,No,Isolated,1.0,3.0,,Program C,Not sure,4.0,5.0,2.0,3.0,1.0,5.0,4.0,2.0,5.0,4.0,5.0,2.0,5.0,6.0,10.0,6.0,9.0,6.0,9.0,10.0,6.0,1.0,3.0,3.0,6.0,6.0,6.0,6.0,6.0,6.0,6.0,4.0,2.0,2.0,1.0,6.0,4.0,6.0,3.0,6.0,4.0,1.0,3.0,6.0,6.0,6.0,1.0,6.0,4.0,2.0,4.0,2.0,2.0,4.0,1.0,2.0,6.0,6.0,4.0,6.0,5.0,6.0,2.0,4.0,2.0,3.0,4.0,2.0,3.0,1.0,6.0,5.0,,6.0,5.0,5.0,6.0,6.0,6.0,6.0,6.0,6.0,6.0,4.0,1.0,6.0,1.0,4.0,6.0,1.0,1.0,6.0,5.0,3.0,6.0,4.0,4.0,2.0,4.0,,4.0,4.0,5.0,3.0,3.0,2.0,,3.9,4.0,1.333333,4.666667,3.666667,5.333333,6.0,5.8
23399,912,2020-04-08 11:43:49,EN,21,Female,"Some College, short continuing education or equivalent",Up to 12 years of school,Student,United States,no,Pennsylvania,Single,0.0,Yes,Life carries on with minor changes,3.0,0.0,Program B,,No,5.0,5.0,5.0,1.0,1.0,5.0,5.0,1.0,2.0,5.0,3.0,5.0,3.0,2.0,7.0,2.0,4.0,3.0,3.0,3.0,1.0,4.0,6.0,6.0,5.0,5.0,4.0,6.0,6.0,6.0,3.0,1.0,4.0,5.0,6.0,4.0,4.0,2.0,5.0,3.0,5.0,2.0,4.0,5.0,5.0,,6.0,4.0,6.0,6.0,99.0,5.0,3.0,6.0,4.0,6.0,99.0,4.0,5.0,5.0,6.0,6.0,6.0,5.0,5.0,6.0,6.0,4.0,6.0,4.0,6.0,99.0,,5.0,4.0,4.0,5.0,5.0,4.0,5.0,5.0,3.0,5.0,2.0,5.0,4.0,4.0,4.0,5.0,2.0,1.0,5.0,3.0,2.0,3.0,3.0,4.0,4.0,4.0,,4.0,4.0,1.0,5.0,4.0,3.0,,4.3,3.666667,4.666667,2.666667,3.333333,4.333333,2.5,4.5
23423,736,2020-04-08 11:34:54,EN,64,Female,"Some College, short continuing education or equivalent",Up to 9 years of school,Retired,United States,no,Pennsylvania,Divorced/widowed,0.0,Yes,Life carries on with minor changes,0.0,0.0,Program B,,No,2.0,2.0,3.0,5.0,4.0,2.0,4.0,4.0,2.0,2.0,2.0,2.0,3.0,6.0,9.0,5.0,8.0,9.0,5.0,6.0,2.0,4.0,6.0,5.0,5.0,5.0,2.0,5.0,5.0,5.0,2.0,4.0,3.0,4.0,3.0,5.0,4.0,2.0,5.0,4.0,5.0,5.0,4.0,5.0,5.0,5.0,2.0,5.0,2.0,99.0,2.0,99.0,3.0,4.0,2.0,99.0,99.0,5.0,2.0,5.0,4.0,5.0,99.0,4.0,4.0,3.0,3.0,99.0,2.0,2.0,4.0,99.0,,6.0,6.0,6.0,6.0,5.0,6.0,6.0,6.0,5.0,6.0,4.0,5.0,5.0,2.0,4.0,4.0,2.0,1.0,4.0,5.0,4.0,5.0,5.0,5.0,5.0,4.0,,3.0,3.0,5.0,3.0,3.0,4.0,,2.0,2.333333,3.0,2.666667,4.666667,4.333333,5.0,5.8
23442,1532,2020-04-08 11:41:36,EN,21,Female,"Some College, short continuing education or equivalent",College degree,Part time employed,United States,no,Pennsylvania,Single,0.0,Yes,Life carries on with minor changes,3.0,0.0,,Program C,Yes,3.0,2.0,4.0,5.0,4.0,2.0,4.0,2.0,3.0,3.0,2.0,3.0,3.0,7.0,9.0,6.0,8.0,7.0,4.0,5.0,8.0,4.0,6.0,5.0,6.0,6.0,4.0,6.0,5.0,3.0,2.0,2.0,2.0,5.0,5.0,5.0,4.0,4.0,2.0,3.0,6.0,2.0,4.0,4.0,5.0,5.0,2.0,4.0,5.0,5.0,99.0,6.0,5.0,5.0,2.0,6.0,99.0,4.0,5.0,5.0,5.0,4.0,6.0,6.0,3.0,2.0,4.0,4.0,3.0,3.0,4.0,2.0,,6.0,6.0,6.0,6.0,6.0,6.0,6.0,6.0,6.0,6.0,4.0,6.0,6.0,5.0,5.0,3.0,2.0,2.0,6.0,5.0,2.0,4.0,4.0,6.0,4.0,4.0,,5.0,4.0,3.0,6.0,4.0,1.0,,2.6,2.666667,4.0,4.333333,3.666667,4.0,4.666667,6.0
23509,681,2020-04-08 11:11:34,EN,23,Female,"College degree, bachelor, master",Some College or equivalent,Student,United States,no,Pennsylvania,Single,0.0,Yes,Isolated,3.0,0.0,Program B,,No,5.0,5.0,5.0,3.0,2.0,4.0,3.0,2.0,5.0,4.0,4.0,5.0,5.0,3.0,8.0,3.0,9.0,3.0,8.0,0.0,5.0,6.0,6.0,6.0,6.0,6.0,4.0,6.0,6.0,6.0,6.0,1.0,4.0,5.0,2.0,6.0,4.0,4.0,3.0,4.0,5.0,4.0,2.0,4.0,5.0,3.0,4.0,5.0,6.0,6.0,99.0,6.0,3.0,6.0,1.0,6.0,99.0,6.0,5.0,5.0,5.0,5.0,5.0,6.0,2.0,6.0,6.0,2.0,6.0,3.0,6.0,5.0,My mental health,6.0,6.0,6.0,6.0,6.0,6.0,6.0,6.0,6.0,6.0,4.0,4.0,5.0,6.0,4.0,4.0,1.0,1.0,4.0,2.0,1.0,2.0,2.0,4.0,1.0,2.0,,4.0,2.0,4.0,4.0,4.0,4.0,,4.2,4.666667,2.666667,4.0,4.333333,4.666667,3.666667,6.0
23530,1301,2020-04-08 11:14:07,EN,20,Female,"College degree, bachelor, master",Some College or equivalent,Student,United States,no,Pennsylvania,Single,0.0,Yes,Isolated,1.0,0.0,Program A,,No,5.0,4.0,5.0,3.0,3.0,2.0,3.0,3.0,4.0,3.0,2.0,2.0,3.0,6.0,8.0,2.0,6.0,5.0,8.0,10.0,2.0,4.0,6.0,5.0,6.0,6.0,0.0,6.0,5.0,5.0,2.0,4.0,4.0,5.0,6.0,3.0,4.0,3.0,6.0,3.0,4.0,2.0,4.0,4.0,6.0,4.0,4.0,4.0,3.0,5.0,99.0,5.0,4.0,5.0,3.0,6.0,99.0,5.0,4.0,5.0,6.0,5.0,4.0,5.0,5.0,5.0,6.0,5.0,2.0,2.0,6.0,1.0,,5.0,5.0,5.0,4.0,5.0,5.0,5.0,5.0,5.0,5.0,3.0,4.0,6.0,2.0,6.0,2.0,1.0,1.0,5.0,4.0,4.0,5.0,6.0,5.0,5.0,2.0,,5.0,5.0,5.0,3.0,6.0,2.0,"Personally, I have a lot of friends and family with mental illnesses. A lot of them rely on either distraction, keeping busy during the day, or therapy. The Coronavirus has made it more difficult for mental health management, especially with the added anxiety the virus contributes.",3.5,2.333333,5.0,2.666667,3.0,4.333333,3.666667,4.9
23620,831,2020-04-08 10:39:45,EN,32,Female,"College degree, bachelor, master",College degree,Self-employed,United States,no,new york,Single,0.0,Yes,Life carries on with minor changes,2.0,0.0,,Program D,Yes,4.0,3.0,4.0,4.0,3.0,3.0,4.0,4.0,4.0,3.0,2.0,3.0,3.0,7.0,9.0,0.0,2.0,9.0,5.0,9.0,0.0,4.0,6.0,4.0,6.0,6.0,0.0,3.0,5.0,5.0,1.0,3.0,4.0,5.0,3.0,5.0,3.0,2.0,5.0,5.0,6.0,4.0,2.0,6.0,5.0,1.0,4.0,5.0,6.0,4.0,99.0,99.0,5.0,4.0,99.0,4.0,99.0,6.0,5.0,5.0,5.0,6.0,3.0,3.0,6.0,4.0,5.0,5.0,5.0,5.0,5.0,5.0,,5.0,6.0,5.0,5.0,5.0,5.0,6.0,6.0,5.0,5.0,1.0,1.0,6.0,1.0,6.0,3.0,1.0,1.0,5.0,6.0,4.0,5.0,6.0,5.0,1.0,5.0,,1.0,6.0,6.0,1.0,4.0,1.0,,3.0,2.666667,3.333333,2.333333,5.0,5.333333,3.0,5.3
23739,997,2020-04-08 10:08:59,EN,22,Female,"Some College, short continuing education or equivalent",College degree,Student,United States,no,Pennsylvania,Single,0.0,Yes,Life carries on with minor changes,2.0,0.0,,Program D,Not sure,4.0,3.0,4.0,4.0,2.0,1.0,2.0,2.0,4.0,5.0,3.0,2.0,3.0,4.0,6.0,4.0,6.0,3.0,3.0,7.0,3.0,3.0,5.0,5.0,6.0,5.0,4.0,5.0,2.0,5.0,2.0,2.0,2.0,2.0,4.0,5.0,4.0,2.0,5.0,2.0,5.0,2.0,4.0,5.0,5.0,2.0,6.0,4.0,2.0,6.0,99.0,6.0,4.0,2.0,2.0,2.0,99.0,5.0,4.0,4.0,5.0,5.0,99.0,4.0,4.0,2.0,2.0,2.0,6.0,4.0,6.0,1.0,,6.0,4.0,6.0,6.0,5.0,6.0,6.0,5.0,6.0,6.0,2.0,6.0,5.0,2.0,5.0,6.0,1.0,1.0,6.0,2.0,2.0,3.0,3.0,5.0,4.0,2.0,,4.0,3.0,5.0,3.0,5.0,3.0,,3.5,2.666667,2.666667,2.666667,3.0,4.333333,2.333333,5.6
23750,1272,2020-04-08 10:11:00,EN,23,Female,"Some College, short continuing education or equivalent",Up to 9 years of school,Part time employed,United States,no,Pennsylvania,Single,1.0,Yes,Life carries on with minor changes,3.0,1.0,Program A,,No,1.0,1.0,3.0,5.0,3.0,1.0,3.0,5.0,1.0,1.0,2.0,2.0,1.0,3.0,8.0,,,,2.0,2.0,,4.0,5.0,4.0,6.0,6.0,0.0,6.0,6.0,6.0,1.0,1.0,2.0,5.0,6.0,4.0,4.0,4.0,5.0,6.0,5.0,4.0,2.0,3.0,5.0,5.0,2.0,6.0,6.0,5.0,5.0,2.0,5.0,4.0,1.0,5.0,2.0,6.0,5.0,6.0,6.0,5.0,99.0,4.0,3.0,2.0,5.0,5.0,6.0,1.0,6.0,2.0,Im stressed that I still have to work everyday where I can potentially be affected because we are an essential business.,6.0,4.0,4.0,6.0,6.0,6.0,6.0,6.0,6.0,6.0,4.0,1.0,2.0,1.0,2.0,2.0,4.0,4.0,3.0,4.0,4.0,3.0,2.0,6.0,1.0,6.0,,5.0,5.0,5.0,2.0,1.0,1.0,"I cant find toilet paper, paper towels, hand sanitizer, or cleaning products anywhere and thats frustrating.",1.6,1.666667,4.666667,3.333333,5.0,4.333333,5.333333,5.6
23971,124,2020-04-09 08:46:16,EN,25,Female,"College degree, bachelor, master",College degree,Full time employed,United States,no,Louisiana,Single,0.0,Yes,Isolated,3.0,0.0,,,,,,,,,,,,,,,,,,,,,,,,,,,,,,,,,,,,,,,,,,,,,,,,,,,,,,,,,,,,,,,,,,,,,,,,,,,,,,,,,,,,,,,,,,,,,,,,,,,,,,,,,,,,,,,,,,,,,,
24024,504,2020-04-09 08:35:32,EN,51,Female,PhD/Doctorate,College degree,Full time employed,United States,no,Pennsylvania,Single,0.0,Yes,Life carries on with minor changes,0.0,0.0,,Program D,No,2.0,3.0,4.0,4.0,3.0,2.0,3.0,3.0,3.0,2.0,2.0,1.0,4.0,5.0,9.0,2.0,7.0,8.0,6.0,6.0,1.0,2.0,6.0,3.0,5.0,5.0,1.0,5.0,4.0,5.0,2.0,3.0,1.0,1.0,1.0,5.0,4.0,2.0,5.0,5.0,6.0,5.0,1.0,5.0,5.0,5.0,3.0,5.0,,,,,,,,,,,,,,,,,,,,,,,,,,,,,,,,,,,,,,,,,,,,,,,,,,,,,,,,,,,,2.7,2.333333,1.333333,2.666667,5.333333,5.333333,4.666667,
24062,3545,2020-04-08 09:12:20,EN,70,Female,"Some College, short continuing education or equivalent",Up to 12 years of school,Part time employed,United States,yes,Pennsylvania,Married/cohabiting,0.0,Yes,Isolated,,0.0,Program A,,No,1.0,1.0,1.0,5.0,,1.0,5.0,5.0,1.0,1.0,1.0,1.0,1.0,9.0,9.0,5.0,2.0,8.0,2.0,8.0,,5.0,5.0,5.0,6.0,6.0,1.0,6.0,6.0,6.0,1.0,5.0,2.0,2.0,1.0,6.0,1.0,2.0,4.0,5.0,6.0,6.0,1.0,5.0,6.0,6.0,1.0,6.0,4.0,99.0,99.0,4.0,2.0,1.0,1.0,1.0,99.0,2.0,1.0,1.0,2.0,2.0,1.0,1.0,1.0,1.0,99.0,1.0,1.0,1.0,1.0,2.0,,5.0,2.0,1.0,5.0,5.0,5.0,5.0,5.0,5.0,5.0,1.0,1.0,5.0,1.0,5.0,4.0,1.0,1.0,2.0,4.0,2.0,,2.0,2.0,1.0,1.0,,2.0,2.0,2.0,2.0,2.0,6.0,"Two of my daughters - one who works in Manhattan (with at least five 2nd-degree exposures in the workplace) and another in Harrisburg, PA  - have almost certainly contracted, and subsequently recovered from, Covid-19 though workplace exposure. The more severe illness, in Harrisburg, PA, occurred mid January and lasted through mid February, while information was actively suppressed by the Trump administration. Although I do not feel insecure or threatened at this point, I think the seriousness of this pandemic has been routinely underestimated and misrepresented by the U.S. government. I am a private citizen who consumes vast amounts of national and international news on a regular basis and was aware of Covid-19 from emergence of reporting re: China| IMO, the conduct of the U.S. government is dangerous and inexcusable.",1.0,1.0,1.333333,2.0,5.666667,5.666667,6.0,4.3
24070,703,2020-04-08 08:21:43,EN,38,Female,"College degree, bachelor, master",College degree,Full time employed,United States,no,Utah,Married/cohabiting,3.0,Yes,Isolated,3.0,3.0,Program A,,No,4.0,3.0,4.0,3.0,1.0,2.0,3.0,4.0,3.0,2.0,1.0,2.0,3.0,2.0,4.0,0.0,2.0,4.0,1.0,3.0,0.0,6.0,6.0,6.0,4.0,4.0,0.0,5.0,5.0,4.0,4.0,1.0,4.0,6.0,6.0,5.0,2.0,1.0,6.0,6.0,6.0,3.0,3.0,4.0,5.0,5.0,2.0,5.0,1.0,6.0,6.0,2.0,5.0,2.0,1.0,6.0,6.0,4.0,2.0,6.0,6.0,6.0,5.0,1.0,1.0,2.0,4.0,4.0,6.0,1.0,5.0,1.0,,5.0,5.0,5.0,5.0,5.0,3.0,5.0,6.0,3.0,6.0,1.0,1.0,5.0,1.0,5.0,4.0,1.0,1.0,4.0,1.0,2.0,1.0,2.0,5.0,1.0,1.0,,1.0,3.0,1.0,4.0,6.0,1.0,Our government is ridiculously incompetent. Its frightening and embarrassing.,3.1,2.0,4.666667,1.333333,5.0,4.333333,5.0,4.8
24126,631,2020-04-08 07:58:57,SV,52,Female,"Some College, short continuing education or equivalent",Up to 6 years of school,Full time employed,United States,no,Manatee,Married/cohabiting,2.0,No,Isolated,1.0,0.0,,Program D,No,2.0,2.0,2.0,5.0,4.0,1.0,1.0,4.0,2.0,3.0,3.0,1.0,3.0,8.0,10.0,10.0,10.0,10.0,10.0,10.0,10.0,5.0,4.0,4.0,5.0,5.0,10.0,6.0,5.0,5.0,1.0,3.0,1.0,2.0,2.0,5.0,4.0,5.0,4.0,2.0,3.0,3.0,1.0,5.0,6.0,6.0,2.0,5.0,6.0,99.0,2.0,6.0,1.0,6.0,99.0,6.0,99.0,6.0,2.0,4.0,3.0,6.0,99.0,6.0,2.0,2.0,2.0,2.0,4.0,1.0,6.0,6.0,,6.0,6.0,6.0,6.0,6.0,6.0,6.0,6.0,6.0,6.0,4.0,6.0,6.0,6.0,6.0,6.0,1.0,1.0,6.0,6.0,4.0,6.0,6.0,6.0,1.0,6.0,,4.0,4.0,6.0,4.0,2.0,6.0,,2.2,2.333333,2.0,4.0,2.666667,5.666667,5.333333,6.0
24146,528,2020-04-08 07:51:41,EN,41,Female,"College degree, bachelor, master",College degree,Full time employed,United States,no,Minnesota,Single,0.0,Yes,Life carries on with minor changes,0.0,0.0,Program A,,Not sure,4.0,3.0,4.0,4.0,3.0,3.0,4.0,3.0,2.0,2.0,5.0,3.0,4.0,5.0,7.0,4.0,4.0,6.0,1.0,5.0,3.0,4.0,5.0,5.0,5.0,6.0,1.0,5.0,1.0,1.0,4.0,3.0,3.0,5.0,3.0,5.0,4.0,4.0,5.0,5.0,6.0,4.0,1.0,6.0,5.0,5.0,2.0,6.0,4.0,3.0,99.0,3.0,4.0,6.0,5.0,99.0,99.0,4.0,5.0,4.0,4.0,6.0,3.0,4.0,2.0,5.0,4.0,4.0,3.0,2.0,4.0,6.0,,6.0,6.0,6.0,6.0,6.0,6.0,6.0,6.0,6.0,6.0,4.0,6.0,6.0,6.0,6.0,3.0,1.0,1.0,4.0,5.0,4.0,4.0,6.0,6.0,5.0,4.0,,5.0,5.0,5.0,4.0,2.0,3.0,,2.8,4.0,3.333333,3.333333,5.0,5.666667,5.333333,6.0
24159,880,2020-04-08 07:53:16,EN,69,Female,"College degree, bachelor, master",Some College or equivalent,Retired,United States,no,TX,Married/cohabiting,0.0,No,Life carries on with minor changes,1.0,0.0,,Program D,No,3.0,3.0,3.0,5.0,3.0,1.0,5.0,2.0,3.0,3.0,3.0,2.0,3.0,4.0,8.0,2.0,6.0,5.0,4.0,3.0,9.0,2.0,3.0,4.0,5.0,5.0,9.0,4.0,5.0,5.0,1.0,3.0,2.0,3.0,2.0,4.0,5.0,4.0,2.0,5.0,4.0,5.0,2.0,5.0,5.0,4.0,4.0,5.0,3.0,3.0,99.0,99.0,2.0,4.0,4.0,4.0,99.0,6.0,5.0,4.0,4.0,4.0,99.0,2.0,4.0,3.0,5.0,1.0,2.0,1.0,5.0,1.0,,5.0,5.0,6.0,5.0,5.0,4.0,4.0,5.0,4.0,4.0,4.0,3.0,5.0,3.0,5.0,6.0,2.0,1.0,5.0,4.0,4.0,4.0,4.0,5.0,6.0,4.0,,4.0,4.0,4.0,3.0,5.0,5.0,,2.5,2.666667,2.666667,4.666667,4.666667,5.0,4.0,4.7
24191,772,2020-04-08 07:41:32,EN,39,Female,"College degree, bachelor, master",College degree,Full time employed,United States,no,Pa,Single,0.0,Yes,Life carries on with minor changes,1.0,0.0,,Program D,No,4.0,4.0,5.0,3.0,3.0,3.0,3.0,3.0,4.0,3.0,3.0,2.0,3.0,4.0,8.0,3.0,5.0,5.0,7.0,8.0,1.0,5.0,6.0,5.0,6.0,5.0,1.0,6.0,5.0,5.0,2.0,2.0,1.0,6.0,4.0,4.0,4.0,3.0,4.0,3.0,5.0,3.0,1.0,5.0,6.0,5.0,1.0,5.0,1.0,5.0,99.0,4.0,4.0,4.0,99.0,5.0,99.0,6.0,5.0,6.0,6.0,6.0,2.0,3.0,2.0,4.0,4.0,2.0,4.0,2.0,3.0,5.0,The health and safety of front line workers who dont have necessary equipment,5.0,6.0,6.0,6.0,5.0,6.0,5.0,5.0,6.0,5.0,2.0,2.0,6.0,1.0,2.0,1.0,5.0,2.0,6.0,6.0,4.0,1.0,4.0,6.0,1.0,6.0,Hiking away from others in nature and working in my garden,4.0,6.0,5.0,4.0,5.0,1.0,Im fortunate in that I worked from home before the crisis. I also just completed chemo so Ive been in relative self-isolation since last August.,3.5,2.666667,4.333333,3.333333,3.666667,5.666667,5.333333,5.5
24193,873,2020-04-08 07:41:50,EN,44,Female,"College degree, bachelor, master",Up to 6 years of school,Not employed,United States,no,Texas,Married/cohabiting,0.0,Not sure,Isolated,1.0,0.0,,Program C,Not sure,3.0,3.0,3.0,4.0,3.0,2.0,4.0,3.0,3.0,2.0,1.0,3.0,3.0,3.0,5.0,6.0,3.0,2.0,,6.0,2.0,3.0,3.0,3.0,3.0,3.0,0.0,5.0,5.0,5.0,4.0,4.0,5.0,4.0,3.0,5.0,3.0,2.0,5.0,4.0,4.0,5.0,4.0,4.0,4.0,3.0,4.0,4.0,5.0,2.0,99.0,5.0,4.0,99.0,99.0,2.0,99.0,5.0,4.0,4.0,4.0,4.0,3.0,4.0,99.0,2.0,2.0,2.0,4.0,3.0,4.0,6.0,,4.0,5.0,4.0,5.0,5.0,5.0,4.0,5.0,4.0,5.0,2.0,4.0,2.0,3.0,2.0,4.0,3.0,2.0,4.0,3.0,2.0,3.0,3.0,4.0,1.0,2.0,,2.0,3.0,5.0,3.0,4.0,3.0,"People are confused with the differences between stay home and lockdown. Lockdown is like in Philippines where police are instructed to shoot at you unless you present their approved paperwork to prove ones need to go to an essential business outside home. Stay at home is just a reminder for people to stay home, without the fear of being harassed and shot",2.6,2.333333,3.0,2.333333,4.333333,3.666667,3.333333,4.6
24217,551,2020-04-09 07:30:33,EN,56,Female,"College degree, bachelor, master",Some College or equivalent,Full time employed,United States,no,Iowa,Divorced/widowed,0.0,Not sure,Isolated,2.0,0.0,Program B,,No,2.0,3.0,3.0,4.0,3.0,3.0,4.0,3.0,1.0,2.0,2.0,2.0,2.0,6.0,8.0,3.0,7.0,4.0,3.0,5.0,2.0,5.0,6.0,5.0,6.0,6.0,,5.0,5.0,5.0,1.0,2.0,1.0,,,,,,,,,,,,,,,,,,,,,,,,,,,,,,,,,,,,,,,,,,,,,,,,,,,,,,,,,,,,,,,,,,,,,,,,,,,2.4,2.0,,,,,,
24220,1267,2020-04-08 07:41:46,EN,54,Female,"College degree, bachelor, master",Some College or equivalent,Part time employed,United States,no,Pennsylvania,Married/cohabiting,1.0,Yes,Isolated,1.0,0.0,Program A,,No,3.0,3.0,5.0,4.0,2.0,3.0,3.0,3.0,5.0,3.0,5.0,5.0,5.0,8.0,10.0,9.0,10.0,10.0,8.0,9.0,10.0,5.0,6.0,5.0,6.0,6.0,8.0,5.0,5.0,5.0,4.0,5.0,4.0,6.0,4.0,3.0,5.0,4.0,4.0,4.0,6.0,3.0,1.0,5.0,6.0,4.0,2.0,5.0,4.0,99.0,99.0,99.0,1.0,5.0,1.0,6.0,99.0,1.0,1.0,6.0,6.0,5.0,99.0,1.0,2.0,6.0,1.0,2.0,6.0,2.0,5.0,99.0,,6.0,5.0,6.0,6.0,6.0,5.0,6.0,6.0,5.0,6.0,6.0,6.0,6.0,1.0,6.0,1.0,1.0,1.0,6.0,5.0,5.0,6.0,5.0,5.0,6.0,5.0,,2.0,5.0,2.0,6.0,5.0,1.0,,3.4,5.0,4.666667,4.0,4.333333,5.666667,4.666667,5.7
24263,1846,2020-04-09 07:32:29,SME,45,Female,PhD/Doctorate,Up to 12 years of school,Full time employed,United States,yes,,Married/cohabiting,0.0,Yes,Life carries on with minor changes,2.0,0.0,,Program C,No,5.0,5.0,4.0,4.0,5.0,2.0,5.0,3.0,1.0,1.0,1.0,1.0,1.0,4.0,6.0,1.0,1.0,0.0,0.0,4.0,1.0,5.0,6.0,5.0,5.0,5.0,4.0,6.0,6.0,6.0,6.0,5.0,6.0,5.0,5.0,5.0,4.0,4.0,4.0,6.0,6.0,6.0,1.0,6.0,4.0,6.0,1.0,5.0,4.0,5.0,99.0,6.0,4.0,6.0,99.0,99.0,99.0,5.0,5.0,,6.0,6.0,4.0,3.0,3.0,5.0,4.0,5.0,5.0,4.0,5.0,6.0,,,,,,,,,,,,,,,,,,,,,,,,,,,,,,,,,,,,2.5,1.0,4.0,3.666667,6.0,5.333333,5.666667,
24267,176,2020-04-09 07:04:00,EN,40,Male,"College degree, bachelor, master",College degree,Full time employed,United States,no,PA,Married/cohabiting,2.0,Yes,Isolated,2.0,2.0,,,,,,,,,,,,,,,,,,,,,,,,,,,,,,,,,,,,,,,,,,,,,,,,,,,,,,,,,,,,,,,,,,,,,,,,,,,,,,,,,,,,,,,,,,,,,,,,,,,,,,,,,,,,,,,,,,,,,,
24288,1203,2020-04-08 07:12:58,EN,45,Female,"College degree, bachelor, master",Some College or equivalent,Self-employed,United States,yes,Pennsylvania,Married/cohabiting,0.0,Yes,Life carries on with minor changes,2.0,0.0,,Program D,No,1.0,2.0,2.0,5.0,4.0,1.0,5.0,5.0,2.0,1.0,1.0,1.0,3.0,8.0,10.0,5.0,9.0,10.0,7.0,10.0,1.0,4.0,6.0,5.0,6.0,6.0,2.0,3.0,4.0,4.0,1.0,5.0,4.0,3.0,3.0,5.0,6.0,6.0,1.0,5.0,6.0,5.0,2.0,5.0,5.0,3.0,3.0,6.0,99.0,1.0,99.0,99.0,2.0,5.0,99.0,1.0,99.0,6.0,2.0,5.0,5.0,5.0,1.0,1.0,5.0,1.0,1.0,3.0,4.0,2.0,5.0,6.0,,6.0,6.0,6.0,6.0,6.0,6.0,6.0,6.0,6.0,6.0,1.0,6.0,6.0,1.0,6.0,6.0,5.0,6.0,6.0,5.0,3.0,2.0,6.0,3.0,1.0,2.0,,1.0,6.0,6.0,2.0,5.0,4.0,The Trump Administration should be held criminally liable for its inaction and promotion of lies and misinformation. We have a tragic lack of leadership and the consequent of this will be many needless deaths and suffering.,1.4,1.666667,2.666667,6.0,5.333333,5.0,4.333333,6.0
24431,923,2020-04-09 06:21:47,EN,41,Female,"Some College, short continuing education or equivalent",Up to 12 years of school,Full time employed,United States,no,Pennsylvania,Divorced/widowed,2.0,No,Isolated,0.0,2.0,,Program D,No,2.0,2.0,3.0,3.0,3.0,2.0,3.0,3.0,2.0,2.0,3.0,2.0,3.0,6.0,9.0,6.0,6.0,6.0,8.0,8.0,4.0,4.0,4.0,4.0,6.0,6.0,3.0,6.0,6.0,5.0,2.0,4.0,4.0,4.0,4.0,2.0,5.0,5.0,3.0,4.0,6.0,2.0,4.0,5.0,5.0,3.0,3.0,5.0,1.0,4.0,3.0,2.0,3.0,4.0,1.0,1.0,5.0,6.0,3.0,5.0,5.0,5.0,5.0,3.0,4.0,5.0,2.0,2.0,2.0,1.0,3.0,1.0,The toll this is taking on my mental health and that of my friends family.,5.0,5.0,5.0,5.0,5.0,5.0,5.0,5.0,5.0,4.0,4.0,5.0,6.0,4.0,4.0,5.0,1.0,1.0,4.0,5.0,4.0,4.0,4.0,4.0,1.0,4.0,,5.0,4.0,5.0,5.0,6.0,5.0,"I think it is interesting to watch, mainly via social media, how the virus and and the government's instructions have split people. My state is locked down (I agree with this decision) and I am now witnessing my friends get in arguments about interpretation of and compliance with the new rules. I suppose it's just like any other big issue that divides people but personal responsibility is turning into a hot point for sure.",2.5,2.666667,4.333333,4.666667,4.0,4.333333,4.0,4.9
24593,5358,2020-04-08 06:57:28,EN,39,Female,"College degree, bachelor, master",Some College or equivalent,Not employed,United States,no,Pennsylvania,Divorced/widowed,0.0,Yes,Isolated,0.0,0.0,,Program D,Not sure,3.0,3.0,3.0,4.0,1.0,1.0,4.0,2.0,2.0,2.0,4.0,3.0,4.0,8.0,9.0,2.0,1.0,5.0,4.0,6.0,0.0,4.0,5.0,5.0,6.0,6.0,0.0,5.0,2.0,2.0,1.0,2.0,1.0,2.0,2.0,5.0,4.0,4.0,4.0,4.0,6.0,4.0,1.0,6.0,6.0,4.0,1.0,5.0,2.0,5.0,,4.0,3.0,5.0,1.0,99.0,99.0,3.0,4.0,4.0,5.0,4.0,4.0,5.0,2.0,5.0,4.0,3.0,1.0,2.0,4.0,2.0,,6.0,5.0,4.0,6.0,6.0,5.0,,6.0,4.0,6.0,2.0,2.0,5.0,2.0,4.0,4.0,1.0,1.0,5.0,2.0,4.0,2.0,2.0,4.0,1.0,1.0,"Exercise, petting and playing with my cat, tending to my plants, listening to music,  organizing areas of the house",4.0,4.0,6.0,4.0,3.0,2.0,Really greatly appreciate the company of my cat in getting through this time. Also zoom meetings with friends on Friday nights.,2.7,3.666667,2.0,3.666667,4.666667,6.0,5.0,5.333333
25626,543,2020-04-08 01:27:38,EN,35,Female,PhD/Doctorate,Some College or equivalent,Full time employed,United States,no,Oregon,Single,0.0,Yes,Isolated,1.0,0.0,,Program C,No,3.0,3.0,4.0,4.0,3.0,4.0,3.0,3.0,3.0,4.0,3.0,2.0,3.0,8.0,8.0,5.0,2.0,9.0,3.0,4.0,2.0,4.0,5.0,4.0,5.0,6.0,3.0,5.0,3.0,4.0,2.0,4.0,5.0,6.0,5.0,2.0,5.0,5.0,3.0,5.0,5.0,6.0,4.0,6.0,6.0,5.0,5.0,5.0,1.0,3.0,99.0,1.0,1.0,4.0,1.0,4.0,99.0,3.0,3.0,4.0,4.0,5.0,2.0,5.0,3.0,3.0,5.0,4.0,1.0,3.0,5.0,5.0,,5.0,4.0,4.0,4.0,5.0,5.0,4.0,4.0,5.0,5.0,2.0,2.0,4.0,4.0,4.0,6.0,2.0,2.0,4.0,3.0,3.0,4.0,4.0,5.0,1.0,3.0,,2.0,6.0,6.0,3.0,5.0,4.0,,3.2,2.666667,5.333333,4.666667,5.333333,5.0,4.0,4.5
25662,3766,2020-04-08 02:12:49,EN,33,Female,"College degree, bachelor, master",College degree,Student,United States,no,Florida,Single,0.0,Yes,Isolated,1.0,0.0,,Program D,No,1.0,4.0,2.0,5.0,4.0,2.0,3.0,3.0,3.0,2.0,1.0,3.0,5.0,7.0,5.0,1.0,0.0,4.0,1.0,1.0,0.0,5.0,6.0,5.0,6.0,6.0,0.0,6.0,1.0,1.0,2.0,1.0,4.0,6.0,6.0,6.0,5.0,6.0,6.0,6.0,4.0,2.0,2.0,1.0,4.0,2.0,6.0,6.0,6.0,1.0,99.0,6.0,2.0,6.0,99.0,1.0,99.0,6.0,6.0,6.0,6.0,6.0,99.0,1.0,2.0,1.0,6.0,6.0,2.0,2.0,4.0,2.0,,6.0,6.0,6.0,6.0,6.0,6.0,6.0,6.0,6.0,6.0,1.0,1.0,6.0,1.0,4.0,6.0,4.0,4.0,6.0,4.0,5.0,1.0,1.0,6.0,1.0,1.0,,1.0,6.0,2.0,2.0,6.0,6.0,,2.3,3.0,4.333333,4.0,4.0,3.333333,3.0,6.0
25826,842,2020-04-08 00:39:46,EN,56,Female,"College degree, bachelor, master",College degree,Full time employed,United States,no,CT,Married/cohabiting,1.0,Yes,Isolated,2.0,0.0,,Program C,No,5.0,5.0,5.0,5.0,1.0,5.0,4.0,2.0,5.0,5.0,1.0,2.0,2.0,5.0,8.0,1.0,3.0,8.0,1.0,8.0,0.0,6.0,6.0,6.0,6.0,6.0,1.0,5.0,5.0,6.0,1.0,1.0,6.0,6.0,4.0,5.0,4.0,2.0,5.0,5.0,6.0,6.0,4.0,5.0,5.0,4.0,2.0,5.0,1.0,6.0,6.0,99.0,6.0,3.0,1.0,4.0,99.0,6.0,5.0,6.0,6.0,6.0,2.0,2.0,1.0,1.0,3.0,2.0,3.0,3.0,6.0,1.0,,6.0,6.0,6.0,6.0,6.0,6.0,6.0,6.0,6.0,6.0,4.0,6.0,6.0,1.0,4.0,5.0,6.0,1.0,6.0,2.0,1.0,4.0,1.0,6.0,1.0,4.0,,5.0,5.0,5.0,5.0,5.0,1.0,,4.2,1.666667,4.0,2.666667,5.666667,4.333333,4.666667,6.0
25941,1373,2020-04-08 00:18:15,EN,47,Female,"College degree, bachelor, master",Some College or equivalent,Full time employed,United States,yes,Alaska,Married/cohabiting,2.0,Yes,Isolated,2.0,0.0,,Program D,Not sure,2.0,3.0,4.0,4.0,4.0,3.0,4.0,4.0,2.0,2.0,3.0,1.0,3.0,5.0,6.0,3.0,7.0,6.0,6.0,5.0,4.0,5.0,6.0,5.0,5.0,5.0,4.0,6.0,5.0,5.0,3.0,5.0,3.0,4.0,3.0,5.0,6.0,5.0,2.0,5.0,6.0,5.0,2.0,5.0,5.0,4.0,4.0,5.0,5.0,5.0,4.0,5.0,5.0,4.0,2.0,4.0,99.0,5.0,4.0,5.0,4.0,6.0,2.0,3.0,4.0,4.0,5.0,2.0,3.0,5.0,6.0,5.0,,5.0,5.0,5.0,5.0,5.0,5.0,5.0,5.0,5.0,5.0,4.0,5.0,6.0,3.0,5.0,5.0,2.0,2.0,5.0,5.0,3.0,4.0,5.0,6.0,5.0,5.0,Reading books,4.0,5.0,4.0,4.0,4.0,3.0,,2.4,2.333333,3.0,5.333333,5.333333,5.0,4.0,5.0
26106,342,2020-04-08 23:18:20,EN,52,Female,,,Not employed,United States,no,Arizona,Married/cohabiting,4.0,Yes,Isolated,4.0,0.0,,,,,,,,,,,,,,,,,,,,,,,,,,,,,,,,,,,,,,,,,,,,,,,,,,,,,,,,,,,,,,,,,,,,,,,,,,,,,,,,,,,,,,,,,,,,,,,,,,,,,,,,,,,,,,,,,,,,,,
26107,1107,2020-04-07 23:30:14,BG,47,Female,"Some College, short continuing education or equivalent",Some College or equivalent,Student,United States,yes,<U+041C><U+0430><U+0441><U+0430><U+0447><U+0443><U+0437><U+0435><U+0446>,Divorced/widowed,1.0,Yes,Life carries on with minor changes,1.0,0.0,,Program D,No,3.0,3.0,4.0,3.0,3.0,4.0,3.0,2.0,3.0,4.0,3.0,1.0,1.0,3.0,5.0,10.0,10.0,10.0,10.0,8.0,10.0,5.0,5.0,5.0,5.0,5.0,5.0,5.0,6.0,6.0,1.0,5.0,6.0,4.0,4.0,6.0,5.0,5.0,2.0,4.0,5.0,4.0,2.0,6.0,5.0,6.0,2.0,5.0,5.0,3.0,4.0,5.0,4.0,2.0,2.0,2.0,2.0,5.0,2.0,5.0,5.0,5.0,2.0,2.0,2.0,2.0,2.0,3.0,5.0,2.0,4.0,2.0,,5.0,4.0,4.0,5.0,4.0,4.0,4.0,5.0,4.0,5.0,5.0,2.0,5.0,3.0,5.0,2.0,1.0,1.0,4.0,5.0,4.0,5.0,5.0,4.0,4.0,5.0,,5.0,5.0,2.0,2.0,2.0,5.0,,3.4,1.666667,3.0,5.0,4.333333,5.333333,5.333333,4.4
26159,588,2020-04-08 23:06:29,EN,56,Male,"College degree, bachelor, master",Some College or equivalent,Part time employed,United States,no,MN,Single,1.0,Yes,Isolated,2.0,0.0,Program A,,No,2.0,3.0,3.0,3.0,3.0,3.0,4.0,3.0,3.0,3.0,4.0,3.0,4.0,6.0,8.0,5.0,8.0,8.0,5.0,6.0,4.0,5.0,6.0,5.0,6.0,6.0,3.0,5.0,5.0,5.0,4.0,4.0,5.0,,,,,,,,,,,,,,,,,,,,,,,,,,,,,,,,,,,,,,,,,,,,,,,,,,,,,,,,,,,,,,,,,,,,,,,,,,,2.8,3.666667,,,,,,
26243,2332,2020-04-07 22:59:54,SME,67,Female,"Some College, short continuing education or equivalent",College degree,Retired,United States,yes,NJ,Divorced/widowed,0.0,Yes,Isolated,2.0,0.0,Program A,,No,2.0,1.0,2.0,5.0,5.0,1.0,5.0,2.0,1.0,1.0,1.0,3.0,1.0,5.0,7.0,7.0,8.0,8.0,9.0,6.0,5.0,6.0,6.0,6.0,6.0,6.0,0.0,6.0,6.0,6.0,1.0,5.0,5.0,5.0,1.0,6.0,5.0,4.0,5.0,4.0,6.0,4.0,5.0,6.0,6.0,4.0,2.0,5.0,1.0,2.0,3.0,2.0,3.0,1.0,99.0,1.0,99.0,5.0,5.0,2.0,5.0,4.0,,2.0,1.0,1.0,1.0,,99.0,2.0,5.0,1.0,,6.0,5.0,5.0,5.0,4.0,5.0,5.0,6.0,5.0,6.0,6.0,6.0,6.0,6.0,6.0,6.0,2.0,1.0,6.0,6.0,6.0,6.0,6.0,6.0,6.0,6.0,,6.0,4.0,3.0,4.0,3.0,5.0,,1.5,1.666667,2.333333,3.666667,4.666667,4.666667,4.666667,5.2
26363,796,2020-04-08 20:38:16,SV,42,Female,PhD/Doctorate,College degree,Full time employed,United States,yes,New York,Single,0.0,Yes,Isolated,0.0,0.0,,Program D,No,3.0,5.0,5.0,2.0,3.0,5.0,3.0,1.0,5.0,2.0,5.0,5.0,5.0,6.0,6.0,4.0,5.0,5.0,6.0,8.0,2.0,4.0,5.0,2.0,6.0,5.0,0.0,6.0,3.0,3.0,6.0,4.0,6.0,1.0,2.0,6.0,3.0,5.0,4.0,6.0,5.0,4.0,3.0,3.0,4.0,6.0,2.0,6.0,1.0,6.0,99.0,2.0,3.0,6.0,1.0,99.0,99.0,5.0,4.0,5.0,6.0,6.0,2.0,2.0,3.0,6.0,6.0,6.0,4.0,3.0,6.0,6.0,,2.0,5.0,2.0,5.0,5.0,5.0,4.0,2.0,6.0,3.0,2.0,1.0,5.0,1.0,6.0,4.0,1.0,1.0,2.0,5.0,2.0,5.0,5.0,1.0,1.0,5.0,,6.0,6.0,6.0,3.0,3.0,3.0,,4.0,5.0,1.333333,3.666667,5.0,3.666667,5.666667,3.9
26375,235,2020-04-08 20:11:39,EN,34,Female,"College degree, bachelor, master",Up to 12 years of school,Full time employed,United States,no,Pennsylvania,Married/cohabiting,0.0,Yes,Isolated,2.0,0.0,Program A,,No,5.0,4.0,5.0,3.0,2.0,4.0,3.0,3.0,4.0,3.0,1.0,2.0,5.0,,,,,,,,,,,,,,,,,,,,,,,,,,,,,,,,,,,,,,,,,,,,,,,,,,,,,,,,,,,,,,,,,,,,,,,,,,,,,,,,,,,,,,,,,,,,,,,3.8,2.666667,,,,,,
26467,901,2020-04-07 18:52:20,EN,41,Male,"College degree, bachelor, master",College degree,Full time employed,United States,no,Ohio,Married/cohabiting,1.0,Yes,Life carries on with minor changes,3.0,1.0,,Program D,No,2.0,2.0,3.0,1.0,1.0,1.0,1.0,4.0,3.0,2.0,1.0,1.0,3.0,6.0,7.0,5.0,7.0,7.0,8.0,8.0,3.0,1.0,1.0,1.0,1.0,1.0,2.0,4.0,5.0,5.0,2.0,3.0,2.0,2.0,2.0,5.0,5.0,3.0,3.0,5.0,6.0,6.0,2.0,5.0,6.0,5.0,1.0,6.0,4.0,1.0,4.0,4.0,1.0,4.0,4.0,1.0,1.0,4.0,99.0,1.0,99.0,4.0,4.0,4.0,2.0,4.0,3.0,3.0,1.0,1.0,2.0,99.0,,6.0,5.0,5.0,5.0,5.0,5.0,5.0,6.0,6.0,6.0,4.0,4.0,6.0,4.0,3.0,4.0,6.0,5.0,5.0,6.0,5.0,5.0,6.0,6.0,5.0,3.0,,5.0,4.0,1.0,5.0,4.0,1.0,,3.0,1.666667,2.0,4.0,5.666667,5.333333,5.666667,5.4
26494,794,2020-04-07 18:17:30,SQI,34,Female,"College degree, bachelor, master",PhD/Doctorate,Part time employed,United States,yes,Illinois,Married/cohabiting,2.0,No,Isolated,1.0,2.0,,Program D,No,3.0,4.0,4.0,3.0,3.0,4.0,3.0,4.0,2.0,4.0,1.0,2.0,4.0,9.0,10.0,9.0,7.0,8.0,6.0,8.0,10.0,5.0,6.0,6.0,6.0,6.0,10.0,6.0,5.0,5.0,4.0,2.0,5.0,5.0,5.0,6.0,6.0,6.0,3.0,4.0,6.0,6.0,1.0,6.0,6.0,6.0,1.0,5.0,6.0,3.0,5.0,5.0,2.0,5.0,1.0,1.0,5.0,6.0,5.0,5.0,6.0,6.0,5.0,4.0,5.0,5.0,6.0,6.0,5.0,2.0,6.0,99.0,,6.0,6.0,6.0,6.0,6.0,6.0,6.0,6.0,6.0,6.0,5.0,6.0,6.0,4.0,6.0,6.0,6.0,5.0,6.0,5.0,4.0,6.0,5.0,6.0,4.0,6.0,,6.0,6.0,6.0,6.0,6.0,4.0,,3.2,2.333333,3.666667,5.333333,5.333333,6.0,5.666667,6.0
26549,830,2020-04-07 17:20:09,ZH-T,27,Female,"College degree, bachelor, master",Some College or equivalent,Student,United States,yes,Illinios,Single,0.0,No,Isolated,2.0,0.0,Program B,,No,4.0,3.0,3.0,4.0,1.0,2.0,3.0,2.0,4.0,2.0,2.0,2.0,4.0,6.0,7.0,7.0,7.0,6.0,8.0,,10.0,5.0,5.0,5.0,6.0,6.0,6.0,5.0,4.0,5.0,3.0,4.0,5.0,4.0,3.0,4.0,4.0,4.0,3.0,5.0,5.0,5.0,5.0,4.0,5.0,4.0,4.0,5.0,99.0,6.0,99.0,6.0,3.0,5.0,2.0,6.0,99.0,6.0,4.0,5.0,1.0,6.0,5.0,4.0,3.0,5.0,5.0,5.0,6.0,4.0,6.0,4.0,,4.0,5.0,5.0,5.0,5.0,5.0,5.0,4.0,5.0,5.0,4.0,4.0,5.0,4.0,5.0,3.0,4.0,4.0,3.0,4.0,4.0,4.0,4.0,5.0,3.0,4.0,,4.0,4.0,4.0,4.0,3.0,3.0,,3.2,2.666667,3.333333,4.0,5.0,3.666667,4.0,4.8
26569,328,2020-04-08 16:57:20,EN,64,Female,"Some College, short continuing education or equivalent",Up to 12 years of school,Full time employed,United States,no,Illinois,Married/cohabiting,0.0,Yes,Isolated,2.0,0.0,,Program D,Yes,4.0,2.0,4.0,4.0,4.0,2.0,4.0,4.0,3.0,2.0,3.0,1.0,2.0,,,,,,,,,,,,,,,,,,,,,,,,,,,,,,,,,,,,,,,,,,,,,,,,,,,,,,,,,,,,,,,,,,,,,,,,,,,,,,,,,,,,,,,,,,,,,,,2.5,2.0,,,,,,
26700,609,2020-04-07 15:55:02,EN,41,Female,"Some College, short continuing education or equivalent",Some College or equivalent,Full time employed,United States,no,Nevada,Married/cohabiting,0.0,Not sure,Isolated,1.0,0.0,,Program D,No,3.0,3.0,4.0,3.0,3.0,3.0,3.0,3.0,3.0,2.0,1.0,1.0,2.0,7.0,9.0,0.0,2.0,5.0,0.0,7.0,0.0,6.0,6.0,6.0,6.0,6.0,0.0,2.0,6.0,6.0,4.0,2.0,4.0,5.0,4.0,2.0,6.0,6.0,2.0,5.0,6.0,4.0,5.0,6.0,5.0,5.0,1.0,6.0,4.0,4.0,99.0,6.0,1.0,6.0,99.0,4.0,99.0,6.0,2.0,2.0,6.0,6.0,5.0,5.0,2.0,2.0,5.0,4.0,5.0,6.0,5.0,99.0,,6.0,5.0,5.0,6.0,6.0,5.0,6.0,6.0,5.0,6.0,1.0,6.0,6.0,5.0,6.0,1.0,3.0,5.0,5.0,5.0,4.0,4.0,4.0,4.0,6.0,1.0,,3.0,5.0,5.0,5.0,5.0,2.0,I'm in constant anxiety and fear. I feel terrorized by the president and his cronies. I feel safe at home but nowhere else,3.0,1.333333,4.666667,5.666667,5.0,4.333333,5.666667,5.6
26770,1103,2020-04-07 15:46:34,EN,47,Female,"College degree, bachelor, master",Some College or equivalent,Not employed,United States,no,Washington,Married/cohabiting,,Yes,Isolated,2.0,1.0,Program A,,Not sure,3.0,3.0,5.0,4.0,3.0,3.0,4.0,3.0,3.0,3.0,1.0,3.0,3.0,6.0,9.0,4.0,4.0,7.0,5.0,8.0,0.0,5.0,5.0,6.0,6.0,6.0,0.0,6.0,6.0,5.0,5.0,3.0,4.0,4.0,4.0,5.0,4.0,3.0,3.0,6.0,6.0,6.0,3.0,5.0,6.0,3.0,4.0,5.0,99.0,99.0,6.0,99.0,3.0,4.0,5.0,3.0,4.0,5.0,99.0,5.0,4.0,5.0,99.0,4.0,2.0,4.0,4.0,3.0,3.0,2.0,6.0,5.0,The affect of the virus and economic problems on the poor and vulnerable in the US. The US does not have strong social safety nets.,6.0,5.0,5.0,6.0,6.0,5.0,5.0,6.0,5.0,6.0,2.0,5.0,4.0,1.0,1.0,5.0,1.0,2.0,5.0,5.0,3.0,4.0,4.0,5.0,4.0,2.0,I am caing for a toddler and teenager focusing on them and working in the garden are comforting,2.0,5.0,5.0,5.0,5.0,5.0,,3.0,2.333333,3.333333,3.666667,6.0,5.0,3.666667,5.5
26803,225,2020-04-08 15:23:26,EN,28,Female,"College degree, bachelor, master",College degree,Student,United States,no,ny,Single,0.0,Yes,Isolated,3.0,0.0,,Program C,,,,,,,,,,,,,,,,,,,,,,,,,,,,,,,,,,,,,,,,,,,,,,,,,,,,,,,,,,,,,,,,,,,,,,,,,,,,,,,,,,,,,,,,,,,,,,,,,,,,,,,,,,,,,,,,,,,,
26871,689,2020-04-08 15:12:57,SV,33,Male,Up to 12 years of school,PhD/Doctorate,Full time employed,United States,yes,Colorado,Married/cohabiting,3.0,No,Isolated,1.0,1.0,,Program C,No,3.0,4.0,5.0,4.0,3.0,3.0,3.0,3.0,4.0,2.0,4.0,3.0,4.0,7.0,9.0,5.0,9.0,9.0,10.0,10.0,5.0,5.0,5.0,5.0,5.0,4.0,4.0,5.0,5.0,6.0,3.0,2.0,3.0,,,,,,,,,,,,,,,,,,,,,,,,,,,,,,,,,,,,,,,,,,,,,,,,,,,,,,,,,,,,,,,,,,,,,,,,,,,3.2,3.666667,,,,,,
26925,695,2020-04-07 15:00:33,EN,26,Female,"College degree, bachelor, master",Some College or equivalent,Full time employed,United States,no,Iowa,Single,,Yes,Life carries on with minor changes,0.0,0.0,Program A,,No,3.0,2.0,5.0,4.0,4.0,3.0,4.0,4.0,3.0,2.0,3.0,3.0,3.0,6.0,8.0,5.0,7.0,5.0,7.0,9.0,4.0,5.0,5.0,5.0,6.0,6.0,1.0,4.0,4.0,5.0,2.0,4.0,2.0,6.0,5.0,5.0,4.0,4.0,4.0,5.0,3.0,4.0,2.0,4.0,5.0,4.0,4.0,4.0,2.0,3.0,3.0,3.0,3.0,5.0,3.0,2.0,1.0,4.0,4.0,6.0,4.0,4.0,2.0,3.0,2.0,4.0,5.0,4.0,4.0,4.0,5.0,4.0,,5.0,5.0,4.0,5.0,5.0,5.0,5.0,5.0,5.0,6.0,4.0,4.0,5.0,5.0,3.0,4.0,2.0,2.0,5.0,5.0,4.0,5.0,5.0,4.0,4.0,5.0,,4.0,3.0,3.0,3.0,3.0,4.0,My health as a health care worker,2.6,3.0,4.333333,3.666667,4.0,4.666667,3.666667,5.0
27067,1376,2020-04-07 14:39:30,EN,81,Male,"College degree, bachelor, master",Up to 12 years of school,Retired,United States,no,Wisconsin,Married/cohabiting,,Yes,Isolated,2.0,0.0,,Program D,No,2.0,3.0,2.0,5.0,4.0,2.0,4.0,5.0,3.0,2.0,1.0,1.0,2.0,6.0,8.0,2.0,7.0,7.0,5.0,8.0,2.0,4.0,4.0,3.0,5.0,5.0,2.0,6.0,5.0,5.0,2.0,2.0,5.0,2.0,2.0,3.0,3.0,2.0,5.0,3.0,5.0,2.0,2.0,5.0,5.0,5.0,2.0,5.0,1.0,99.0,99.0,99.0,5.0,6.0,1.0,1.0,99.0,5.0,1.0,6.0,6.0,5.0,2.0,5.0,1.0,2.0,4.0,6.0,2.0,1.0,5.0,4.0,,6.0,6.0,6.0,6.0,6.0,5.0,6.0,6.0,4.0,5.0,4.0,2.0,6.0,1.0,4.0,2.0,1.0,,5.0,,2.0,5.0,,3.0,1.0,3.0,,4.0,6.0,2.0,4.0,1.0,3.0,,2.0,1.333333,2.666667,2.333333,3.333333,5.0,5.0,5.6
27172,986,2020-04-07 14:04:28,BG,48,Female,"College degree, bachelor, master",Up to 12 years of school,Part time employed,United States,yes,<U+041D><U+044E> <U+0419><U+043E><U+0440><U+043A>,Married/cohabiting,1.0,Yes,Isolated,1.0,0.0,Program B,,Not sure,2.0,2.0,2.0,4.0,3.0,2.0,4.0,4.0,2.0,3.0,1.0,2.0,2.0,4.0,4.0,4.0,5.0,4.0,4.0,5.0,4.0,4.0,5.0,4.0,4.0,4.0,3.0,4.0,5.0,4.0,3.0,2.0,3.0,3.0,3.0,4.0,3.0,2.0,4.0,4.0,4.0,3.0,3.0,4.0,4.0,4.0,4.0,5.0,4.0,4.0,99.0,,4.0,3.0,99.0,99.0,99.0,4.0,4.0,6.0,6.0,6.0,6.0,3.0,3.0,3.0,3.0,5.0,5.0,3.0,5.0,5.0,,4.0,5.0,3.0,5.0,5.0,5.0,4.0,5.0,3.0,5.0,3.0,5.0,4.0,3.0,5.0,3.0,1.0,1.0,3.0,4.0,3.0,4.0,4.0,4.0,2.0,3.0,,2.0,6.0,6.0,5.0,2.0,3.0,,2.2,1.666667,3.0,2.666667,3.666667,4.0,4.0,4.4
27195,897,2020-04-08 13:58:39,EN,51,Female,"College degree, bachelor, master",College degree,Not employed,United States,no,Washington,Married/cohabiting,2.0,No,Isolated,1.0,0.0,Program A,,No,1.0,1.0,4.0,4.0,4.0,1.0,4.0,3.0,4.0,1.0,1.0,1.0,1.0,6.0,8.0,3.0,3.0,7.0,3.0,7.0,1.0,5.0,5.0,5.0,5.0,5.0,0.0,5.0,5.0,5.0,1.0,1.0,5.0,5.0,5.0,5.0,4.0,2.0,5.0,5.0,5.0,6.0,2.0,5.0,6.0,5.0,5.0,6.0,,,,,,,,,,,,,,,,,,,,,,,,,,,,,,,,,,,,,,,,,,,,,,,,,,,,,,,,,,,,2.1,1.0,4.0,2.666667,5.333333,5.333333,4.333333,
27260,747,2020-04-07 13:41:48,BG,47,Female,Up to 12 years of school,Up to 12 years of school,Self-employed,United States,yes,<U+0427><U+0438><U+043A><U+0430><U+0433><U+043E>,Married/cohabiting,1.0,Yes,Isolated,1.0,0.0,Program B,,No,3.0,3.0,3.0,4.0,3.0,3.0,3.0,3.0,3.0,3.0,4.0,3.0,3.0,5.0,8.0,2.0,2.0,2.0,0.0,4.0,1.0,6.0,6.0,6.0,5.0,6.0,0.0,6.0,5.0,6.0,1.0,4.0,4.0,3.0,4.0,4.0,5.0,5.0,4.0,4.0,5.0,4.0,5.0,5.0,4.0,5.0,1.0,6.0,6.0,4.0,5.0,5.0,5.0,2.0,1.0,5.0,1.0,5.0,6.0,4.0,2.0,6.0,2.0,5.0,4.0,4.0,4.0,4.0,5.0,4.0,4.0,4.0,,6.0,4.0,4.0,5.0,6.0,4.0,4.0,2.0,4.0,6.0,5.0,6.0,6.0,2.0,6.0,4.0,1.0,1.0,4.0,6.0,4.0,4.0,4.0,5.0,5.0,4.0,,3.0,4.0,4.0,5.0,5.0,2.0,,2.9,3.333333,3.333333,4.333333,4.333333,3.666667,5.666667,4.5
27603,621,2020-04-08 12:28:20,EN,53,Female,"College degree, bachelor, master",Up to 12 years of school,Full time employed,United States,no,California,Divorced/widowed,3.0,Yes,Isolated,0.0,0.0,Program A,,No,2.0,2.0,5.0,5.0,4.0,1.0,4.0,4.0,3.0,1.0,2.0,3.0,3.0,3.0,8.0,1.0,8.0,7.0,7.0,6.0,1.0,6.0,4.0,5.0,5.0,5.0,0.0,6.0,6.0,6.0,1.0,1.0,6.0,5.0,3.0,6.0,4.0,2.0,5.0,4.0,6.0,4.0,4.0,5.0,5.0,3.0,4.0,5.0,99.0,5.0,5.0,5.0,4.0,3.0,1.0,99.0,1.0,6.0,3.0,6.0,5.0,4.0,6.0,5.0,1.0,4.0,4.0,4.0,1.0,1.0,6.0,5.0,,6.0,6.0,6.0,6.0,5.0,6.0,6.0,6.0,5.0,6.0,4.0,1.0,6.0,3.0,6.0,4.0,1.0,1.0,4.0,4.0,4.0,6.0,1.0,6.0,2.0,1.0,,3.0,4.0,5.0,4.0,4.0,3.0,,2.1,2.666667,3.0,2.666667,4.666667,4.333333,3.666667,5.8
27644,874,2020-04-07 12:23:29,EN,41,Female,"College degree, bachelor, master",Some College or equivalent,Part time employed,United States,no,Ohio,Married/cohabiting,2.0,Yes,Isolated,1.0,2.0,,Program D,No,1.0,1.0,3.0,4.0,3.0,2.0,3.0,4.0,1.0,1.0,1.0,1.0,3.0,6.0,9.0,6.0,9.0,9.0,7.0,8.0,2.0,5.0,4.0,5.0,5.0,5.0,0.0,5.0,5.0,5.0,2.0,4.0,4.0,5.0,3.0,5.0,5.0,4.0,5.0,2.0,6.0,5.0,1.0,5.0,6.0,4.0,3.0,5.0,5.0,99.0,5.0,99.0,1.0,3.0,3.0,4.0,6.0,3.0,3.0,3.0,4.0,4.0,99.0,2.0,5.0,3.0,2.0,3.0,4.0,2.0,4.0,2.0,,5.0,5.0,5.0,6.0,5.0,5.0,5.0,6.0,4.0,6.0,3.0,4.0,5.0,4.0,4.0,5.0,1.0,5.0,4.0,5.0,4.0,6.0,2.0,6.0,3.0,4.0,,4.0,4.0,4.0,1.0,3.0,5.0,,1.9,1.666667,3.333333,3.666667,4.333333,5.666667,4.333333,5.2
27656,277,2020-04-08 12:11:37,EN,48,Female,"College degree, bachelor, master",College degree,Full time employed,United States,no,Ohio,Married/cohabiting,0.0,No,Life carries on with minor changes,2.0,0.0,Program B,,No,3.0,3.0,4.0,4.0,3.0,3.0,3.0,3.0,2.0,2.0,1.0,2.0,2.0,,,,,,,,,,,,,,,,,,,,,,,,,,,,,,,,,,,,,,,,,,,,,,,,,,,,,,,,,,,,,,,,,,,,,,,,,,,,,,,,,,,,,,,,,,,,,,,2.8,1.666667,,,,,,
27729,793,2020-04-07 12:04:45,EN,52,Female,"College degree, bachelor, master",Up to 12 years of school,Not employed,United States,no,California,Married/cohabiting,0.0,Yes,Life carries on with minor changes,1.0,0.0,Program A,,No,3.0,3.0,3.0,4.0,3.0,2.0,3.0,4.0,4.0,3.0,1.0,2.0,2.0,6.0,8.0,0.0,5.0,5.0,3.0,7.0,0.0,6.0,6.0,6.0,6.0,6.0,0.0,5.0,5.0,6.0,1.0,1.0,2.0,4.0,3.0,3.0,3.0,1.0,6.0,4.0,6.0,5.0,3.0,4.0,5.0,6.0,2.0,6.0,2.0,99.0,99.0,4.0,2.0,2.0,1.0,1.0,99.0,6.0,4.0,4.0,5.0,4.0,1.0,2.0,1.0,1.0,2.0,2.0,5.0,2.0,6.0,6.0,,5.0,6.0,6.0,6.0,6.0,6.0,5.0,6.0,5.0,6.0,2.0,1.0,4.0,1.0,,2.0,4.0,2.0,5.0,4.0,3.0,6.0,2.0,5.0,1.0,3.0,,1.0,2.0,4.0,1.0,2.0,1.0,,2.8,1.666667,3.666667,1.666667,5.0,4.333333,5.666667,5.7
27936,676,2020-04-07 11:20:50,EN,41,Male,"Some College, short continuing education or equivalent",Up to 12 years of school,Full time employed,United States,no,Ct,Married/cohabiting,4.0,Yes,Life carries on with minor changes,1.0,3.0,,Program D,No,4.0,3.0,3.0,2.0,2.0,3.0,3.0,3.0,3.0,3.0,4.0,2.0,3.0,4.0,8.0,4.0,6.0,5.0,7.0,2.0,7.0,4.0,6.0,5.0,5.0,4.0,3.0,6.0,5.0,5.0,4.0,4.0,1.0,2.0,4.0,4.0,5.0,5.0,2.0,5.0,4.0,6.0,2.0,5.0,6.0,4.0,3.0,4.0,1.0,2.0,5.0,1.0,2.0,6.0,4.0,2.0,6.0,5.0,2.0,5.0,5.0,4.0,99.0,4.0,2.0,2.0,2.0,4.0,2.0,1.0,6.0,1.0,,5.0,5.0,5.0,4.0,5.0,5.0,4.0,6.0,5.0,5.0,3.0,5.0,3.0,4.0,3.0,4.0,6.0,5.0,2.0,3.0,1.0,3.0,5.0,1.0,3.0,3.0,,2.0,5.0,4.0,4.0,4.0,1.0,,3.3,3.0,3.0,5.0,5.0,5.333333,4.0,4.9
28135,2511,2020-04-07 10:54:56,EN,51,Female,"College degree, bachelor, master",College degree,Full time employed,United States,yes,Maryland,Married/cohabiting,2.0,Yes,Life carries on with minor changes,3.0,0.0,Program A,,No,2.0,4.0,4.0,4.0,3.0,3.0,3.0,4.0,3.0,1.0,1.0,1.0,1.0,1.0,6.0,1.0,4.0,5.0,6.0,7.0,2.0,5.0,5.0,5.0,6.0,6.0,0.0,6.0,6.0,6.0,2.0,2.0,5.0,4.0,3.0,4.0,3.0,3.0,3.0,6.0,6.0,4.0,2.0,4.0,5.0,4.0,2.0,5.0,4.0,2.0,5.0,4.0,5.0,4.0,3.0,4.0,99.0,6.0,5.0,6.0,6.0,6.0,5.0,5.0,2.0,2.0,5.0,4.0,6.0,1.0,5.0,6.0,,6.0,4.0,4.0,6.0,5.0,5.0,5.0,6.0,5.0,4.0,3.0,1.0,6.0,1.0,4.0,4.0,1.0,1.0,4.0,4.0,1.0,4.0,5.0,5.0,4.0,5.0,,2.0,5.0,5.0,2.0,2.0,4.0,,2.7,1.0,3.333333,3.333333,5.333333,4.666667,4.666667,5.0
28147,1183,2020-04-07 10:29:35,EN,59,Female,PhD/Doctorate,College degree,Part time employed,United States,no,New York,Married/cohabiting,1.0,No,Isolated,2.0,0.0,,Program D,No,3.0,4.0,4.0,3.0,3.0,2.0,2.0,2.0,4.0,3.0,2.0,4.0,4.0,6.0,9.0,4.0,2.0,8.0,6.0,9.0,3.0,1.0,1.0,1.0,1.0,1.0,0.0,6.0,6.0,6.0,3.0,2.0,1.0,3.0,3.0,3.0,4.0,5.0,2.0,5.0,6.0,4.0,2.0,6.0,5.0,5.0,4.0,6.0,6.0,6.0,99.0,6.0,5.0,6.0,99.0,5.0,99.0,6.0,5.0,6.0,6.0,6.0,5.0,6.0,2.0,6.0,6.0,6.0,3.0,2.0,6.0,6.0,,5.0,5.0,4.0,6.0,6.0,5.0,6.0,6.0,5.0,6.0,5.0,2.0,6.0,1.0,1.0,4.0,1.0,4.0,6.0,4.0,4.0,6.0,1.0,5.0,5.0,5.0,,4.0,5.0,4.0,6.0,3.0,2.0,,3.4,3.333333,3.333333,4.666667,5.0,5.333333,4.666667,5.4
28289,1932,2020-04-07 10:02:19,SME,31,Female,Up to 12 years of school,,Self-employed,United States,yes,,Other or would rather not say,1.0,Yes,Isolated,1.0,1.0,,Program D,No,1.0,2.0,3.0,4.0,4.0,1.0,5.0,4.0,1.0,2.0,2.0,1.0,2.0,3.0,9.0,3.0,4.0,4.0,2.0,8.0,0.0,2.0,6.0,5.0,6.0,6.0,0.0,6.0,6.0,6.0,2.0,5.0,6.0,5.0,4.0,4.0,5.0,5.0,5.0,5.0,6.0,5.0,1.0,4.0,6.0,5.0,4.0,5.0,5.0,99.0,5.0,4.0,4.0,1.0,1.0,1.0,1.0,5.0,1.0,6.0,6.0,6.0,1.0,1.0,2.0,1.0,2.0,6.0,5.0,1.0,5.0,1.0,,6.0,6.0,6.0,6.0,6.0,4.0,6.0,6.0,4.0,5.0,2.0,5.0,5.0,1.0,5.0,5.0,5.0,5.0,5.0,4.0,5.0,5.0,4.0,5.0,1.0,5.0,,5.0,5.0,5.0,5.0,5.0,4.0,Tener a Trump al mando de este país es un peligro para la seguridad de todos,1.7,1.666667,4.0,4.0,5.333333,5.333333,4.333333,5.5
28349,1145,2020-04-07 09:33:45,SCU,68,Female,"College degree, bachelor, master",College degree,Self-employed,United States,no,Virginia,Divorced/widowed,0.0,Yes,Life carries on with minor changes,0.0,0.0,,,,2.0,2.0,3.0,5.0,4.0,2.0,5.0,4.0,2.0,2.0,3.0,2.0,3.0,8.0,10.0,5.0,9.0,8.0,7.0,8.0,6.0,3.0,5.0,5.0,5.0,,2.0,6.0,5.0,5.0,1.0,3.0,2.0,4.0,2.0,4.0,5.0,5.0,2.0,,6.0,4.0,2.0,,,6.0,1.0,5.0,2.0,2.0,99.0,3.0,2.0,6.0,2.0,99.0,99.0,6.0,1.0,5.0,3.0,5.0,1.0,2.0,2.0,3.0,5.0,3.0,1.0,1.0,6.0,6.0,,5.0,5.0,5.0,5.0,5.0,5.0,5.0,5.0,5.0,5.0,4.0,5.0,5.0,2.0,5.0,5.0,1.0,1.0,5.0,5.0,5.0,5.0,5.0,5.0,5.0,5.0,,5.0,5.0,6.0,5.0,5.0,5.0,,1.9,2.666667,3.0,5.0,5.0,5.0,5.666667,5.0
28534,589,2020-04-08 08:37:00,SQI,33,Male,"Some College, short continuing education or equivalent",Up to 12 years of school,Full time employed,United States,yes,New York,Married/cohabiting,2.0,Yes,,3.0,2.0,,,,3.0,3.0,3.0,3.0,3.0,3.0,3.0,2.0,3.0,4.0,1.0,3.0,1.0,3.0,8.0,4.0,10.0,7.0,8.0,10.0,10.0,4.0,5.0,5.0,6.0,5.0,10.0,6.0,5.0,5.0,2.0,,3.0,4.0,4.0,3.0,5.0,5.0,4.0,4.0,5.0,2.0,2.0,5.0,5.0,4.0,1.0,5.0,,,,,,,,,,,,,,,,,,,,,,,,,,,,,,,,,,,,,,,,,,,,,,,,,,,,,,,,,,,,3.2,1.666667,4.0,4.333333,3.666667,5.0,5.0,
28785,105,2020-04-08 07:32:36,EN,47,Female,PhD/Doctorate,Up to 12 years of school,Full time employed,United States,no,VA,Married/cohabiting,1.0,No,Isolated,1.0,0.0,,,,,,,,,,,,,,,,,,,,,,,,,,,,,,,,,,,,,,,,,,,,,,,,,,,,,,,,,,,,,,,,,,,,,,,,,,,,,,,,,,,,,,,,,,,,,,,,,,,,,,,,,,,,,,,,,,,,,,
29023,1342,2020-04-07 07:00:42,EN,67,Male,"Some College, short continuing education or equivalent",Up to 12 years of school,Retired,United States,no,Florida,Married/cohabiting,1.0,Yes,Isolated,2.0,0.0,Program B,,No,1.0,4.0,1.0,5.0,4.0,1.0,4.0,5.0,2.0,1.0,1.0,1.0,4.0,5.0,10.0,8.0,8.0,2.0,10.0,1.0,10.0,5.0,5.0,5.0,5.0,5.0,5.0,6.0,6.0,6.0,1.0,4.0,5.0,2.0,1.0,5.0,5.0,5.0,2.0,6.0,5.0,2.0,3.0,5.0,5.0,6.0,2.0,5.0,1.0,2.0,4.0,2.0,3.0,4.0,2.0,2.0,2.0,6.0,1.0,5.0,5.0,4.0,1.0,1.0,1.0,1.0,3.0,2.0,2.0,1.0,3.0,1.0,,6.0,4.0,6.0,6.0,6.0,6.0,6.0,6.0,5.0,6.0,5.0,5.0,5.0,1.0,5.0,3.0,1.0,1.0,5.0,5.0,5.0,5.0,2.0,6.0,2.0,5.0,,5.0,1.0,2.0,2.0,2.0,5.0,,1.6,2.0,1.666667,5.0,4.333333,4.666667,5.333333,5.7
29187,843,2020-04-07 06:16:03,SQI,32,Female,"College degree, bachelor, master",Some College or equivalent,Not employed,United States,yes,Virginia,Married/cohabiting,0.0,Yes,Isolated,3.0,0.0,,Program D,Not sure,3.0,3.0,4.0,3.0,1.0,4.0,3.0,3.0,3.0,3.0,3.0,3.0,3.0,2.0,6.0,1.0,6.0,6.0,6.0,8.0,2.0,5.0,6.0,5.0,6.0,6.0,7.0,5.0,5.0,5.0,5.0,5.0,5.0,5.0,6.0,4.0,5.0,4.0,5.0,5.0,6.0,4.0,4.0,5.0,5.0,5.0,2.0,4.0,2.0,5.0,99.0,5.0,4.0,3.0,99.0,5.0,5.0,6.0,3.0,5.0,5.0,6.0,5.0,5.0,2.0,5.0,4.0,5.0,4.0,1.0,5.0,99.0,,5.0,5.0,5.0,5.0,6.0,4.0,6.0,6.0,5.0,6.0,2.0,6.0,6.0,3.0,5.0,4.0,5.0,3.0,5.0,4.0,5.0,4.0,5.0,5.0,2.0,4.0,,4.0,4.0,5.0,4.0,5.0,4.0,Kam frike per prinderit e mi dhe vjehrrit e mi qe jane ne moshe 55+. Gjysherit e bashkeshortit tim jane ende gjalle dhe jane te moshuar andaj kam frike per ta. Te gjithe jane te izoluar dhe po kujdesen maksimalisht megjithate kam frike per shendetin e tyre.,3.4,3.0,4.666667,3.666667,5.0,4.333333,4.666667,5.3
29745,1342,2020-04-08 04:16:48,EN,71,Female,"Some College, short continuing education or equivalent",Some College or equivalent,Retired,United States,no,North Carolinia,Married/cohabiting,0.0,Yes,Life carries on with minor changes,1.0,0.0,,Program C,No,3.0,2.0,3.0,4.0,3.0,2.0,2.0,3.0,3.0,2.0,4.0,3.0,3.0,8.0,8.0,0.0,2.0,2.0,5.0,5.0,0.0,5.0,5.0,5.0,5.0,5.0,1.0,6.0,6.0,6.0,5.0,6.0,5.0,4.0,5.0,3.0,5.0,2.0,5.0,5.0,6.0,4.0,3.0,4.0,5.0,5.0,1.0,1.0,99.0,99.0,99.0,99.0,6.0,6.0,99.0,6.0,99.0,6.0,5.0,6.0,6.0,6.0,99.0,6.0,99.0,5.0,5.0,6.0,4.0,6.0,5.0,6.0,,5.0,5.0,5.0,5.0,5.0,4.0,5.0,5.0,4.0,5.0,5.0,1.0,5.0,1.0,2.0,5.0,1.0,1.0,2.0,3.0,3.0,5.0,3.0,5.0,4.0,3.0,,2.0,5.0,2.0,3.0,3.0,2.0,,2.7,3.333333,4.333333,3.0,5.0,4.333333,4.0,4.8
30892,2533,2020-04-07 00:51:30,EN,43,Female,"College degree, bachelor, master",Some College or equivalent,Not employed,United States,no,WA,Married/cohabiting,0.0,Yes,Isolated,1.0,0.0,Program A,,No,5.0,4.0,5.0,3.0,2.0,3.0,3.0,1.0,4.0,5.0,3.0,4.0,4.0,5.0,6.0,3.0,4.0,5.0,2.0,9.0,1.0,6.0,5.0,5.0,6.0,6.0,0.0,5.0,5.0,5.0,5.0,2.0,3.0,6.0,5.0,5.0,5.0,5.0,1.0,6.0,6.0,6.0,3.0,5.0,6.0,6.0,2.0,5.0,6.0,99.0,99.0,5.0,6.0,5.0,5.0,6.0,99.0,6.0,5.0,6.0,6.0,5.0,5.0,6.0,6.0,5.0,5.0,3.0,2.0,1.0,4.0,99.0,,5.0,5.0,5.0,5.0,5.0,5.0,4.0,5.0,5.0,5.0,2.0,3.0,5.0,3.0,5.0,2.0,1.0,2.0,5.0,5.0,3.0,3.0,2.0,5.0,2.0,1.0,,1.0,5.0,6.0,6.0,6.0,4.0,,4.1,3.666667,4.333333,5.333333,6.0,5.0,5.333333,4.9
30918,1129,2020-04-08 00:22:08,SQI,46,Female,"Some College, short continuing education or equivalent",Up to 6 years of school,Not employed,United States,yes,Florida,Single,3.0,No,,2.0,2.0,,,,3.0,2.0,2.0,1.0,4.0,3.0,5.0,2.0,1.0,3.0,3.0,2.0,1.0,3.0,7.0,1.0,3.0,5.0,5.0,7.0,7.0,4.0,6.0,4.0,,,8.0,6.0,6.0,5.0,3.0,4.0,5.0,4.0,5.0,5.0,4.0,5.0,4.0,6.0,5.0,3.0,2.0,5.0,,6.0,2.0,6.0,,,,,,,,,,,,,,,,,,,,,,,,,,,,,,,,,,,,,,,,,,,,,,,,,,,,,,,,,,,,2.6,2.0,3.666667,4.0,4.666667,5.0,5.666667,
31002,509,2020-04-06 23:55:27,EN,21,Female,"Some College, short continuing education or equivalent",College degree,Part time employed,United States,no,Oregon,Single,0.0,Yes,Life carries on with minor changes,4.0,0.0,Program B,,No,4.0,3.0,3.0,3.0,2.0,4.0,3.0,2.0,4.0,3.0,5.0,5.0,5.0,5.0,9.0,3.0,5.0,3.0,1.0,2.0,2.0,2.0,4.0,2.0,2.0,5.0,2.0,2.0,3.0,4.0,4.0,1.0,2.0,4.0,4.0,4.0,6.0,6.0,1.0,5.0,4.0,4.0,2.0,5.0,6.0,4.0,3.0,5.0,5.0,4.0,99.0,99.0,4.0,6.0,99.0,5.0,99.0,99.0,2.0,4.0,4.0,4.0,99.0,4.0,5.0,6.0,6.0,6.0,2.0,2.0,6.0,6.0,,6.0,6.0,6.0,5.0,4.0,6.0,5.0,6.0,4.0,6.0,4.0,5.0,6.0,3.0,6.0,6.0,1.0,2.0,6.0,5.0,4.0,2.0,4.0,3.0,2.0,4.0,,4.0,5.0,5.0,5.0,5.0,3.0,Its possible I could have had the virus and gotten over it... but there is no testing for that,3.5,5.0,3.666667,6.0,4.333333,5.333333,4.333333,5.4
31185,2285,2020-04-06 23:43:06,SQI,33,Female,"Some College, short continuing education or equivalent",Some College or equivalent,Self-employed,United States,yes,New york,Single,2.0,No,,3.0,2.0,,Program D,Not sure,5.0,3.0,5.0,4.0,2.0,4.0,3.0,3.0,4.0,4.0,2.0,2.0,4.0,5.0,5.0,0.0,1.0,,1.0,1.0,10.0,2.0,6.0,5.0,4.0,3.0,10.0,6.0,6.0,6.0,6.0,,6.0,4.0,2.0,5.0,6.0,6.0,5.0,6.0,6.0,5.0,6.0,4.0,6.0,6.0,1.0,6.0,6.0,6.0,6.0,6.0,4.0,4.0,5.0,6.0,6.0,4.0,4.0,6.0,5.0,6.0,4.0,6.0,6.0,4.0,4.0,6.0,6.0,6.0,6.0,6.0,,5.0,5.0,4.0,5.0,5.0,5.0,5.0,5.0,5.0,5.0,5.0,6.0,6.0,5.0,5.0,5.0,6.0,5.0,5.0,6.0,5.0,5.0,6.0,5.0,5.0,5.0,,6.0,6.0,6.0,6.0,6.0,4.0,,3.7,2.666667,2.666667,4.666667,5.666667,3.666667,6.0,4.9
31427,265,2020-04-07 22:07:51,KO,32,Female,PhD/Doctorate,College degree,Part time employed,United States,yes,<U+C2DC><U+CE74><U+ACE0>,Married/cohabiting,1.0,No,Life carries on with minor changes,,,Program A,,Not sure,2.0,4.0,3.0,3.0,4.0,4.0,3.0,4.0,3.0,2.0,1.0,1.0,1.0,7.0,9.0,7.0,7.0,7.0,10.0,7.0,7.0,4.0,4.0,4.0,4.0,6.0,9.0,6.0,5.0,4.0,6.0,4.0,4.0,6.0,4.0,3.0,3.0,5.0,2.0,5.0,3.0,3.0,4.0,5.0,4.0,6.0,2.0,6.0,,,,,,,,,,,,,,,,,,,,,,,,,,,,,,,,,,,,,,,,,,,,,,,,,,,,,,,,,,,,2.8,1.0,4.666667,4.333333,3.666667,4.0,5.666667,
31444,849,2020-04-06 22:12:22,SQI,35,Female,"Some College, short continuing education or equivalent",Up to 12 years of school,Not employed,United States,yes,New York,Married/cohabiting,3.0,Not sure,Isolated,1.0,3.0,Program A,,No,4.0,4.0,5.0,4.0,2.0,3.0,3.0,3.0,5.0,3.0,4.0,4.0,5.0,3.0,6.0,1.0,4.0,4.0,2.0,1.0,8.0,3.0,6.0,5.0,5.0,5.0,8.0,4.0,4.0,5.0,3.0,3.0,6.0,5.0,6.0,2.0,5.0,5.0,2.0,5.0,5.0,1.0,4.0,4.0,4.0,6.0,4.0,4.0,6.0,5.0,5.0,6.0,6.0,2.0,2.0,4.0,5.0,6.0,3.0,6.0,6.0,6.0,4.0,2.0,2.0,2.0,5.0,6.0,6.0,3.0,6.0,5.0,,6.0,4.0,5.0,5.0,5.0,6.0,4.0,6.0,6.0,6.0,4.0,1.0,6.0,1.0,6.0,6.0,1.0,1.0,6.0,4.0,4.0,4.0,4.0,1.0,6.0,5.0,,5.0,3.0,6.0,4.0,5.0,2.0,,3.6,4.333333,5.333333,5.0,3.666667,3.666667,4.333333,5.3
31475,633,2020-04-06 21:58:56,ZH-T,30,Female,"College degree, bachelor, master",PhD/Doctorate,Full time employed,United States,yes,Washington,Married/cohabiting,0.0,No,Life carries on with minor changes,1.0,0.0,,Program D,,3.0,2.0,3.0,4.0,2.0,2.0,3.0,3.0,1.0,2.0,2.0,1.0,2.0,8.0,9.0,5.0,5.0,5.0,5.0,,4.0,3.0,1.0,5.0,5.0,5.0,4.0,6.0,6.0,6.0,1.0,3.0,6.0,4.0,5.0,3.0,4.0,4.0,2.0,4.0,5.0,5.0,2.0,4.0,4.0,5.0,2.0,4.0,2.0,3.0,99.0,4.0,3.0,2.0,2.0,2.0,99.0,5.0,4.0,4.0,4.0,4.0,2.0,2.0,99.0,2.0,2.0,2.0,3.0,2.0,4.0,1.0,,4.0,4.0,4.0,4.0,4.0,4.0,4.0,4.0,3.0,3.0,4.0,4.0,4.0,4.0,4.0,3.0,5.0,5.0,4.0,4.0,5.0,4.0,4.0,5.0,1.0,4.0,,1.0,1.0,5.0,1.0,1.0,3.0,,2.5,1.666667,4.333333,4.333333,4.666667,4.333333,4.666667,3.8
31645,2745,2020-04-06 21:50:07,SME,38,Female,PhD/Doctorate,Up to 12 years of school,Full time employed,United States,yes,Massachusetts,Divorced/widowed,0.0,Yes,Life carries on with minor changes,1.0,0.0,Program A,,No,3.0,4.0,4.0,4.0,4.0,3.0,3.0,1.0,3.0,2.0,2.0,2.0,2.0,6.0,8.0,4.0,7.0,6.0,7.0,8.0,7.0,2.0,6.0,5.0,6.0,6.0,4.0,6.0,6.0,2.0,1.0,5.0,2.0,4.0,2.0,6.0,4.0,3.0,6.0,5.0,5.0,4.0,1.0,5.0,4.0,5.0,2.0,6.0,1.0,6.0,99.0,5.0,1.0,2.0,99.0,1.0,99.0,5.0,4.0,4.0,4.0,6.0,4.0,1.0,1.0,2.0,1.0,2.0,1.0,1.0,5.0,1.0,,6.0,6.0,6.0,6.0,6.0,6.0,6.0,6.0,6.0,6.0,2.0,3.0,6.0,4.0,4.0,5.0,1.0,1.0,4.0,5.0,6.0,5.0,6.0,4.0,1.0,4.0,,6.0,6.0,6.0,6.0,6.0,4.0,"el peligro de infeccion y las malas condiciones de trabajo para los doctores, enfermeras y otro personal medico",3.1,2.0,2.333333,2.666667,4.666667,5.0,5.333333,6.0
31707,954,2020-04-06 21:02:13,FILI,20,Female,"Some College, short continuing education or equivalent",College degree,Full time employed,United States,no,Cavite,Single,0.0,Yes,Life carries on with minor changes,0.0,0.0,Program B,,Yes,5.0,4.0,5.0,3.0,1.0,3.0,3.0,2.0,3.0,3.0,3.0,2.0,4.0,5.0,8.0,2.0,1.0,4.0,5.0,7.0,1.0,4.0,6.0,4.0,6.0,6.0,3.0,5.0,5.0,5.0,2.0,2.0,2.0,5.0,6.0,2.0,2.0,1.0,6.0,4.0,6.0,5.0,2.0,4.0,5.0,5.0,5.0,6.0,99.0,6.0,99.0,4.0,5.0,5.0,99.0,5.0,99.0,5.0,4.0,6.0,6.0,6.0,4.0,4.0,5.0,4.0,3.0,5.0,5.0,4.0,5.0,4.0,,4.0,6.0,5.0,6.0,5.0,5.0,6.0,4.0,5.0,4.0,3.0,2.0,4.0,2.0,2.0,5.0,5.0,4.0,5.0,2.0,4.0,4.0,3.0,5.0,2.0,4.0,,4.0,4.0,3.0,3.0,5.0,4.0,,3.8,3.0,5.333333,1.333333,5.0,4.666667,4.333333,5.0
31718,14199,2020-04-08 00:40:14,SQI,46,Female,Up to 12 years of school,Up to 6 years of school,Not employed,United States,yes,USA,Married/cohabiting,6.0,Yes,Isolated,6.0,1.0,,,,4.0,3.0,3.0,3.0,3.0,4.0,3.0,3.0,4.0,,3.0,,,2.0,3.0,0.0,3.0,0.0,0.0,6.0,10.0,4.0,4.0,4.0,4.0,4.0,5.0,,,,,,,,,,,,,,,,,,,,,,,,,,,,,,,,,,,,,,,,,,,,,,,,,,,,,,,,,,,,,,,,,,,,,,,,,,,,,,,,,3.333333,3.0,,,,,,
31745,660,2020-04-07 20:44:19,SQI,56,Male,"Some College, short continuing education or equivalent",Up to 9 years of school,Full time employed,United States,yes,Michigan,Married/cohabiting,2.0,Not sure,Life carries on with minor changes,3.0,0.0,Program A,,Not sure,3.0,3.0,4.0,3.0,3.0,3.0,3.0,3.0,4.0,3.0,3.0,3.0,3.0,2.0,1.0,0.0,1.0,2.0,4.0,0.0,8.0,6.0,4.0,4.0,4.0,4.0,5.0,5.0,5.0,5.0,5.0,5.0,5.0,4.0,4.0,5.0,4.0,4.0,4.0,4.0,5.0,4.0,4.0,6.0,4.0,6.0,1.0,4.0,,,,,,,,,,,,,,,,,,,,,,,,,,,,,,,,,,,,,,,,,,,,,,,,,,,,,,,,,,,,3.2,3.0,3.333333,3.666667,4.333333,4.333333,5.333333,
31814,2940,2020-04-06 21:00:23,EN,42,Female,"College degree, bachelor, master",Some College or equivalent,Self-employed,United States,no,Colorado,Married/cohabiting,2.0,Yes,Isolated,1.0,2.0,Program A,,Not sure,3.0,3.0,3.0,4.0,3.0,2.0,5.0,3.0,3.0,3.0,3.0,1.0,3.0,6.0,8.0,3.0,5.0,6.0,7.0,5.0,2.0,3.0,4.0,6.0,5.0,5.0,2.0,2.0,5.0,5.0,2.0,2.0,4.0,4.0,3.0,4.0,5.0,4.0,3.0,4.0,6.0,4.0,4.0,5.0,5.0,5.0,3.0,6.0,5.0,2.0,3.0,3.0,5.0,2.0,2.0,4.0,1.0,5.0,4.0,6.0,6.0,6.0,1.0,2.0,3.0,5.0,4.0,2.0,5.0,4.0,3.0,4.0,Other people's irresponsible/cavalier attitudes.,3.0,5.0,5.0,5.0,6.0,5.0,6.0,6.0,5.0,6.0,3.0,1.0,4.0,1.0,4.0,5.0,1.0,1.0,4.0,5.0,4.0,4.0,4.0,4.0,3.0,2.0,Family time. Board games. Outdoor hikes away from people.,4.0,5.0,3.0,3.0,3.0,5.0,Disinformation and misinformation being spread through word of mouth and social media.,2.6,2.333333,3.333333,4.333333,4.666667,4.333333,5.0,5.2
31823,787,2020-04-07 20:22:28,SQI,65,Female,"Some College, short continuing education or equivalent",Up to 6 years of school,Retired,United States,yes,US-Texas,Divorced/widowed,0.0,No,Life carries on with minor changes,2.0,0.0,Program A,,,,,,,,,,,,,,,,,,,,,,,,,,,,,,,,,,,,,,,,,,,,,,,,,,,,,,,,,,,,,,,,,,,,,,,,,,,,,,,,,,,,,,,,,,,,,,,,,,,,,,,,,,,,,,,,,,,,,
31911,4406,2020-04-07 20:59:05,SQI,50,Female,"College degree, bachelor, master",Some College or equivalent,Full time employed,United States,yes,USA/Kentucky,Married/cohabiting,1.0,No,Life carries on with minor changes,4.0,3.0,Program B,,Not sure,3.0,3.0,3.0,5.0,5.0,1.0,5.0,2.0,3.0,2.0,1.0,1.0,1.0,5.0,8.0,10.0,8.0,5.0,3.0,7.0,10.0,5.0,6.0,5.0,6.0,6.0,10.0,6.0,6.0,5.0,1.0,5.0,4.0,3.0,2.0,5.0,6.0,6.0,1.0,5.0,6.0,4.0,1.0,5.0,6.0,6.0,1.0,5.0,4.0,4.0,4.0,4.0,4.0,1.0,1.0,1.0,2.0,5.0,5.0,4.0,99.0,5.0,,2.0,1.0,2.0,1.0,2.0,2.0,1.0,4.0,2.0,,6.0,6.0,4.0,6.0,4.0,5.0,5.0,6.0,4.0,5.0,5.0,5.0,5.0,2.0,6.0,4.0,5.0,4.0,5.0,5.0,4.0,6.0,5.0,5.0,4.0,6.0,,6.0,5.0,5.0,5.0,5.0,6.0,,2.2,1.0,2.333333,6.0,5.0,5.666667,5.666667,5.1
31922,901,2020-04-07 19:55:51,SQI,57,Male,"Some College, short continuing education or equivalent",Up to 6 years of school,Full time employed,United States,yes,California-usa,Married/cohabiting,3.0,No,Life carries on with minor changes,,,Program A,,Not sure,3.0,2.0,3.0,2.0,3.0,2.0,3.0,3.0,3.0,1.0,2.0,2.0,1.0,2.0,5.0,8.0,10.0,7.0,8.0,8.0,10.0,5.0,5.0,5.0,5.0,5.0,10.0,6.0,5.0,6.0,6.0,5.0,5.0,4.0,5.0,6.0,5.0,5.0,4.0,5.0,5.0,5.0,2.0,5.0,5.0,6.0,4.0,6.0,,,,,,,,,,,,,,,,,,,,,,,,,,,,,,,,,,,,,,,,,,,,,,,,,,,,,,,,,,,,2.7,1.666667,3.333333,4.333333,5.0,5.0,5.0,
31924,1420,2020-04-06 20:03:52,EN,47,Male,PhD/Doctorate,College degree,Self-employed,United States,yes,Nc,Married/cohabiting,4.0,No,Life carries on with minor changes,,,Program B,,Yes,1.0,3.0,1.0,4.0,5.0,1.0,4.0,4.0,1.0,1.0,1.0,1.0,1.0,0.0,2.0,1.0,0.0,0.0,0.0,0.0,0.0,1.0,1.0,1.0,1.0,5.0,10.0,6.0,6.0,1.0,1.0,1.0,6.0,1.0,1.0,5.0,4.0,4.0,5.0,6.0,5.0,6.0,5.0,4.0,4.0,5.0,1.0,6.0,1.0,1.0,1.0,99.0,1.0,99.0,99.0,1.0,1.0,1.0,1.0,1.0,1.0,1.0,1.0,1.0,1.0,1.0,99.0,99.0,1.0,1.0,1.0,99.0,I do go outside I work outside and I go to Church!,4.0,4.0,6.0,4.0,6.0,4.0,4.0,6.0,2.0,6.0,1.0,1.0,1.0,1.0,1.0,1.0,4.0,4.0,4.0,2.0,4.0,1.0,1.0,4.0,6.0,1.0,,4.0,4.0,1.0,1.0,4.0,1.0,Less stress less traffic better gas mileage cheaper gas. Get home faster after work. Steadier income. Church still open. Feel God power more than before. Overall positive changes.     ,1.5,1.0,1.333333,3.333333,5.666667,3.333333,5.666667,4.6
32090,2132,2020-04-06 19:24:44,SQI,23,Male,"Some College, short continuing education or equivalent",Up to 12 years of school,Student,United States,yes,New York,Single,0.0,No,Life carries on with minor changes,1.0,0.0,Program B,,No,3.0,3.0,2.0,4.0,3.0,3.0,4.0,3.0,2.0,3.0,3.0,3.0,3.0,5.0,9.0,9.0,6.0,5.0,7.0,9.0,10.0,3.0,4.0,3.0,5.0,5.0,9.0,4.0,5.0,5.0,4.0,4.0,4.0,2.0,1.0,6.0,3.0,2.0,4.0,5.0,6.0,6.0,1.0,6.0,6.0,5.0,5.0,4.0,99.0,4.0,99.0,5.0,99.0,99.0,99.0,99.0,99.0,5.0,99.0,4.0,99.0,5.0,99.0,99.0,99.0,4.0,99.0,99.0,99.0,99.0,99.0,99.0,,5.0,5.0,4.0,5.0,5.0,4.0,5.0,5.0,4.0,6.0,5.0,5.0,5.0,4.0,4.0,4.0,2.0,2.0,4.0,4.0,4.0,5.0,4.0,4.0,1.0,4.0,,5.0,4.0,4.0,4.0,4.0,4.0,,2.6,3.0,1.333333,2.666667,5.666667,6.0,3.666667,4.8
32165,1015,2020-04-06 18:48:11,ZH-T,40,Female,PhD/Doctorate,College degree,Part time employed,United States,yes,Maryland,Married/cohabiting,1.0,No,Life carries on with minor changes,1.0,1.0,Program B,,No,2.0,1.0,2.0,4.0,3.0,1.0,5.0,4.0,2.0,2.0,1.0,1.0,2.0,6.0,8.0,7.0,7.0,6.0,5.0,0.0,6.0,3.0,4.0,4.0,6.0,6.0,3.0,5.0,6.0,6.0,2.0,5.0,3.0,3.0,4.0,5.0,3.0,3.0,4.0,3.0,4.0,3.0,3.0,6.0,4.0,3.0,4.0,3.0,99.0,99.0,6.0,99.0,2.0,2.0,1.0,1.0,4.0,6.0,4.0,4.0,4.0,4.0,4.0,5.0,4.0,1.0,4.0,1.0,5.0,1.0,5.0,6.0,,6.0,5.0,5.0,5.0,6.0,4.0,6.0,6.0,3.0,4.0,4.0,4.0,5.0,1.0,3.0,4.0,1.0,2.0,6.0,4.0,3.0,4.0,4.0,6.0,1.0,4.0,,4.0,4.0,5.0,3.0,4.0,2.0,,1.8,1.333333,3.0,3.0,3.333333,4.666667,3.0,5.0
32239,389,2020-04-07 18:14:46,SQI,49,Male,"Some College, short continuing education or equivalent",Up to 9 years of school,Self-employed,United States,no,NJ,Married/cohabiting,,,,,,Program B,,,,,,,,,,,,,,,,,,,,,,,,,,,,,,,,,,,,,,,,,,,,,,,,,,,,,,,,,,,,,,,,,,,,,,,,,,,,,,,,,,,,,,,,,,,,,,,,,,,,,,,,,,,,,,,,,,,,,
32249,708,2020-04-07 18:18:00,SQI,43,Male,Up to 12 years of school,,Full time employed,United States,yes,New York,Married/cohabiting,3.0,Not sure,Life carries on with minor changes,2.0,1.0,Program B,,No,3.0,1.0,2.0,5.0,5.0,1.0,5.0,4.0,1.0,1.0,1.0,3.0,2.0,5.0,5.0,10.0,10.0,,3.0,10.0,10.0,5.0,5.0,5.0,5.0,5.0,10.0,6.0,6.0,6.0,1.0,6.0,6.0,1.0,1.0,6.0,6.0,5.0,2.0,5.0,5.0,1.0,1.0,6.0,6.0,6.0,1.0,5.0,,,,,,,,,,,,,,,,,,,,,,,,,,,,,,,,,,,,,,,,,,,,,,,,,,,,,,,,,,,,1.4,2.0,1.0,5.333333,3.666667,6.0,5.666667,
32307,673,2020-04-07 18:03:00,SQI,47,Female,"Some College, short continuing education or equivalent",Up to 6 years of school,Full time employed,United States,yes,New York,Other or would rather not say,5.0,Yes,Isolated,3.0,0.0,,Program C,No,3.0,3.0,3.0,5.0,4.0,2.0,4.0,2.0,3.0,3.0,1.0,3.0,2.0,8.0,8.0,10.0,2.0,2.0,10.0,10.0,10.0,5.0,6.0,5.0,6.0,6.0,10.0,6.0,6.0,6.0,5.0,5.0,4.0,5.0,6.0,5.0,6.0,6.0,2.0,4.0,4.0,4.0,1.0,6.0,6.0,6.0,4.0,6.0,99.0,6.0,6.0,99.0,4.0,6.0,2.0,6.0,6.0,6.0,6.0,6.0,6.0,6.0,6.0,6.0,2.0,6.0,99.0,6.0,3.0,3.0,6.0,6.0,,5.0,4.0,4.0,5.0,4.0,5.0,5.0,4.0,5.0,4.0,6.0,5.0,6.0,5.0,6.0,4.0,3.0,3.0,4.0,6.0,6.0,6.0,6.0,4.0,2.0,6.0,,6.0,6.0,6.0,6.0,6.0,6.0,,2.6,2.0,4.333333,5.666667,4.0,6.0,5.0,4.5
32314,1602,2020-04-07 18:16:32,EL,42,Female,PhD/Doctorate,College degree,Part time employed,United States,yes,Massachussets,Single,2.0,Yes,Isolated,1.0,2.0,,Program D,No,3.0,3.0,3.0,4.0,3.0,3.0,3.0,3.0,4.0,3.0,4.0,2.0,2.0,5.0,8.0,3.0,5.0,5.0,5.0,7.0,3.0,6.0,6.0,6.0,6.0,6.0,3.0,6.0,6.0,6.0,6.0,3.0,5.0,4.0,4.0,5.0,5.0,5.0,4.0,6.0,6.0,6.0,2.0,4.0,6.0,6.0,2.0,6.0,3.0,5.0,99.0,5.0,5.0,6.0,1.0,3.0,6.0,6.0,5.0,6.0,6.0,6.0,6.0,5.0,6.0,99.0,6.0,5.0,4.0,6.0,6.0,6.0,,,,,,,,,,,,,,,,,,,,,,,,,,,,,,,,,,,,3.0,2.666667,3.333333,4.333333,6.0,5.0,5.666667,
32326,540,2020-04-07 17:56:08,EN,44,Male,"College degree, bachelor, master",Some College or equivalent,Full time employed,United States,no,New York,Married/cohabiting,2.0,Yes,Isolated,1.0,0.0,Program B,,No,3.0,3.0,4.0,4.0,3.0,3.0,3.0,3.0,3.0,3.0,2.0,3.0,3.0,6.0,9.0,1.0,6.0,6.0,2.0,8.0,0.0,5.0,5.0,5.0,4.0,5.0,0.0,5.0,4.0,5.0,2.0,2.0,4.0,5.0,2.0,5.0,3.0,1.0,6.0,5.0,,3.0,3.0,4.0,4.0,5.0,4.0,5.0,2.0,5.0,6.0,3.0,5.0,4.0,3.0,3.0,99.0,5.0,5.0,4.0,4.0,4.0,6.0,4.0,4.0,5.0,4.0,5.0,2.0,3.0,6.0,4.0,,,,,,,,,,,,,,,,,,,,,,,,,,,,,,,,,,,,3.0,2.666667,3.0,1.666667,4.0,4.0,4.333333,
32426,558,2020-04-06 17:40:08,SQI,22,Male,"Some College, short continuing education or equivalent",Up to 9 years of school,Full time employed,United States,yes,New York,Single,0.0,No,Life carries on with minor changes,2.0,0.0,Program A,,No,3.0,1.0,2.0,5.0,4.0,2.0,3.0,3.0,2.0,,1.0,1.0,1.0,4.0,6.0,9.0,6.0,6.0,7.0,8.0,10.0,4.0,5.0,5.0,5.0,5.0,9.0,5.0,5.0,6.0,2.0,5.0,5.0,2.0,2.0,6.0,5.0,4.0,3.0,5.0,4.0,5.0,4.0,4.0,4.0,5.0,2.0,5.0,4.0,5.0,99.0,4.0,5.0,4.0,4.0,99.0,99.0,5.0,5.0,5.0,4.0,5.0,99.0,4.0,4.0,1.0,6.0,4.0,4.0,4.0,5.0,99.0,,6.0,5.0,5.0,5.0,5.0,6.0,5.0,4.0,5.0,5.0,5.0,5.0,5.0,5.0,5.0,5.0,6.0,5.0,5.0,5.0,5.0,5.0,4.0,5.0,6.0,5.0,,5.0,5.0,5.0,5.0,5.0,5.0,,2.111111,1.0,1.666667,4.333333,4.666667,3.666667,5.0,5.1
32427,1101,2020-04-07 17:49:30,SQI,62,Female,Up to 9 years of school,Up to 6 years of school,Full time employed,United States,yes,Texas,Married/cohabiting,0.0,Not sure,Life carries on with minor changes,,,,,,4.0,3.0,3.0,4.0,3.0,3.0,3.0,3.0,3.0,3.0,2.0,3.0,4.0,5.0,7.0,2.0,9.0,8.0,10.0,8.0,10.0,4.0,4.0,4.0,4.0,4.0,9.0,5.0,5.0,5.0,5.0,5.0,5.0,3.0,3.0,4.0,4.0,3.0,3.0,3.0,4.0,3.0,3.0,3.0,3.0,3.0,4.0,3.0,,,,,,,,,,,,,,,,,,,,,,,,,,,,,,,,,,,,,,,,,,,,,,,,,,,,,,,,,,,,3.0,3.0,3.0,3.666667,3.333333,3.333333,3.0,
32560,319,2020-04-06 17:21:45,SQI,18,Male,Up to 12 years of school,Up to 12 years of school,Part time employed,United States,yes,New York,Single,0.0,Yes,Isolated,5.0,0.0,Program A,,No,5.0,2.0,4.0,5.0,4.0,4.0,3.0,5.0,3.0,3.0,3.0,3.0,5.0,6.0,9.0,10.0,10.0,8.0,10.0,8.0,10.0,6.0,6.0,6.0,6.0,6.0,10.0,6.0,6.0,6.0,6.0,6.0,6.0,6.0,6.0,6.0,5.0,6.0,6.0,6.0,4.0,5.0,2.0,6.0,6.0,5.0,6.0,6.0,6.0,6.0,6.0,6.0,6.0,6.0,6.0,6.0,6.0,6.0,6.0,6.0,6.0,6.0,6.0,6.0,6.0,6.0,6.0,6.0,6.0,6.0,6.0,6.0,,5.0,4.0,5.0,4.0,5.0,5.0,4.0,5.0,5.0,5.0,5.0,6.0,5.0,5.0,4.0,6.0,6.0,5.0,5.0,5.0,6.0,6.0,5.0,5.0,5.0,5.0,,6.0,6.0,6.0,6.0,6.0,6.0,,2.8,3.666667,4.333333,4.0,5.0,5.666667,4.0,4.7
32768,988,2020-04-06 17:11:08,EN,25,Female,"College degree, bachelor, master",Up to 12 years of school,Part time employed,United States,no,CA,Single,0.0,Yes,Life carries on with minor changes,3.0,0.0,,Program D,No,3.0,2.0,3.0,4.0,3.0,1.0,3.0,3.0,2.0,1.0,2.0,4.0,3.0,6.0,8.0,5.0,2.0,3.0,7.0,7.0,8.0,6.0,6.0,6.0,6.0,6.0,5.0,4.0,5.0,5.0,2.0,4.0,3.0,5.0,5.0,5.0,4.0,5.0,4.0,6.0,6.0,4.0,5.0,5.0,5.0,5.0,4.0,5.0,4.0,4.0,99.0,4.0,4.0,4.0,4.0,5.0,99.0,3.0,4.0,5.0,6.0,3.0,2.0,2.0,1.0,3.0,5.0,3.0,3.0,2.0,3.0,1.0,,5.0,5.0,3.0,5.0,5.0,6.0,5.0,5.0,5.0,6.0,2.0,5.0,6.0,2.0,5.0,3.0,2.0,2.0,5.0,4.0,4.0,4.0,5.0,5.0,6.0,4.0,,4.0,2.0,2.0,4.0,4.0,5.0,,2.3,3.0,4.0,4.0,5.333333,4.0,4.333333,5.0
32907,320,2020-04-07 16:18:53,SQI,25,Female,PhD/Doctorate,Up to 12 years of school,,United States,yes,US,Single,0.0,Yes,Life carries on with minor changes,1.0,0.0,Program A,,No,2.0,5.0,5.0,5.0,4.0,3.0,3.0,4.0,3.0,1.0,2.0,1.0,2.0,,,,,,,,,,,,,,,,,,,,,,,,,,,,,,,,,,,,,,,,,,,,,,,,,,,,,,,,,,,,,,,,,,,,,,,,,,,,,,,,,,,,,,,,,,,,,,,2.7,1.666667,,,,,,
33015,1267,2020-04-07 16:06:52,SQI,30,Female,"College degree, bachelor, master",Up to 12 years of school,Part time employed,United States,yes,Massachusetts,Married/cohabiting,2.0,Yes,Life carries on with minor changes,0.0,0.0,Program A,,No,3.0,3.0,4.0,5.0,3.0,3.0,3.0,4.0,3.0,2.0,2.0,2.0,2.0,3.0,7.0,3.0,5.0,4.0,7.0,7.0,10.0,3.0,5.0,4.0,5.0,5.0,10.0,6.0,6.0,6.0,1.0,5.0,4.0,3.0,4.0,4.0,5.0,6.0,2.0,5.0,6.0,5.0,2.0,5.0,6.0,6.0,1.0,6.0,,,,,,,,,,,,,,,,,,,,,,,,,,,,,,,,,,,,,,,,,,,,,,,,,,,,,,,,,,,,2.7,2.0,3.333333,5.333333,5.333333,5.333333,6.0,
33016,109,2020-04-07 15:46:47,HR,28,Female,"College degree, bachelor, master",College degree,Student,United States,yes,California,Married/cohabiting,0.0,No,Life carries on with minor changes,1.0,0.0,,,,,,,,,,,,,,,,,,,,,,,,,,,,,,,,,,,,,,,,,,,,,,,,,,,,,,,,,,,,,,,,,,,,,,,,,,,,,,,,,,,,,,,,,,,,,,,,,,,,,,,,,,,,,,,,,,,,,,
33047,702,2020-04-06 15:48:06,EN,50,Female,"Some College, short continuing education or equivalent",Some College or equivalent,Full time employed,United States,no,California,Single,0.0,Yes,Life carries on with minor changes,2.0,0.0,,Program D,No,2.0,4.0,3.0,5.0,3.0,1.0,4.0,3.0,4.0,1.0,2.0,2.0,3.0,8.0,10.0,5.0,9.0,10.0,7.0,10.0,9.0,6.0,5.0,6.0,6.0,6.0,3.0,6.0,6.0,6.0,1.0,1.0,2.0,4.0,3.0,6.0,6.0,6.0,1.0,4.0,5.0,4.0,1.0,6.0,6.0,3.0,3.0,6.0,6.0,5.0,99.0,1.0,1.0,6.0,99.0,1.0,1.0,2.0,99.0,6.0,1.0,5.0,1.0,4.0,1.0,5.0,1.0,1.0,6.0,6.0,6.0,1.0,,6.0,6.0,6.0,6.0,6.0,6.0,6.0,6.0,6.0,6.0,6.0,6.0,5.0,3.0,6.0,6.0,1.0,6.0,6.0,4.0,4.0,6.0,6.0,4.0,1.0,4.0,,4.0,6.0,6.0,6.0,6.0,1.0,,2.4,2.333333,2.666667,6.0,4.333333,6.0,4.333333,6.0
33188,16322,2020-04-07 19:32:50,SME,74,Female,PhD/Doctorate,Some College or equivalent,Part time employed,United States,yes,IA,Divorced/widowed,0.0,Yes,Isolated,3.0,1.0,,Program D,No,5.0,2.0,,5.0,4.0,2.0,4.0,4.0,3.0,2.0,1.0,2.0,3.0,9.0,9.0,0.0,8.0,6.0,10.0,10.0,0.0,6.0,6.0,6.0,6.0,6.0,0.0,5.0,5.0,5.0,2.0,5.0,2.0,,,,,,,,,,,,,,,,,,,,,,,,,,,,,,,,,,,,,,,,,,,,,,,,,,,,,,,,,,,,,,,,,,,,,,,,,,,2.333333,2.0,,,,,,
33240,583,2020-04-06 15:01:51,EN,52,Male,"College degree, bachelor, master",Some College or equivalent,Full time employed,United States,no,NY,Married/cohabiting,0.0,No,Isolated,2.0,0.0,,Program C,No,2.0,3.0,4.0,3.0,3.0,4.0,3.0,3.0,3.0,3.0,3.0,3.0,3.0,6.0,8.0,4.0,4.0,5.0,5.0,7.0,3.0,5.0,5.0,4.0,5.0,5.0,2.0,4.0,4.0,4.0,2.0,4.0,4.0,5.0,5.0,4.0,4.0,3.0,5.0,4.0,5.0,3.0,2.0,4.0,4.0,4.0,3.0,4.0,5.0,5.0,4.0,4.0,3.0,4.0,1.0,3.0,99.0,5.0,4.0,5.0,6.0,5.0,5.0,3.0,4.0,3.0,4.0,4.0,4.0,4.0,6.0,3.0,,5.0,5.0,5.0,5.0,5.0,5.0,5.0,5.0,5.0,5.0,4.0,4.0,4.0,4.0,5.0,5.0,4.0,5.0,6.0,5.0,4.0,4.0,5.0,5.0,1.0,6.0,,4.0,4.0,4.0,4.0,4.0,3.0,,3.1,3.0,4.333333,3.0,4.0,4.333333,4.0,5.0
33264,11725,2020-04-06 18:04:15,EN,45,Female,"College degree, bachelor, master",College degree,Full time employed,United States,yes,CA,Married/cohabiting,0.0,Yes,Isolated,1.0,0.0,,Program D,No,4.0,3.0,4.0,4.0,3.0,1.0,4.0,3.0,3.0,3.0,3.0,1.0,2.0,3.0,4.0,1.0,1.0,4.0,0.0,,2.0,6.0,6.0,6.0,6.0,6.0,0.0,6.0,6.0,6.0,1.0,1.0,4.0,5.0,5.0,2.0,3.0,2.0,5.0,4.0,5.0,5.0,4.0,3.0,5.0,5.0,4.0,5.0,2.0,6.0,99.0,2.0,6.0,3.0,1.0,5.0,99.0,4.0,5.0,6.0,6.0,6.0,1.0,2.0,3.0,1.0,2.0,4.0,6.0,2.0,5.0,6.0,,6.0,4.0,4.0,6.0,6.0,3.0,6.0,6.0,2.0,6.0,1.0,2.0,5.0,2.0,5.0,6.0,4.0,4.0,6.0,5.0,6.0,5.0,6.0,5.0,5.0,2.0,,2.0,5.0,6.0,6.0,6.0,1.0,"Lack of trust in the U.S. government, disappointment in their inaction and then delay in actions towards the pandemic. Having a president trying to play god and doctor only confuses people who are desperately trying their best to help contain the spread.",2.8,2.0,5.0,2.333333,4.666667,3.666667,4.333333,4.9
33268,1299,2020-04-06 15:09:38,EN,66,Female,Up to 12 years of school,Up to 9 years of school,Retired,United States,no,Ca,Married/cohabiting,,Yes,Isolated,1.0,0.0,Program B,,No,1.0,1.0,3.0,5.0,5.0,1.0,5.0,4.0,1.0,1.0,1.0,1.0,4.0,5.0,5.0,5.0,10.0,10.0,7.0,10.0,8.0,6.0,6.0,6.0,6.0,5.0,4.0,5.0,5.0,5.0,6.0,3.0,6.0,2.0,2.0,4.0,5.0,3.0,5.0,2.0,5.0,2.0,3.0,5.0,6.0,4.0,2.0,5.0,99.0,99.0,5.0,3.0,4.0,4.0,2.0,1.0,99.0,5.0,6.0,6.0,6.0,4.0,1.0,99.0,2.0,2.0,4.0,1.0,5.0,1.0,4.0,1.0,,6.0,6.0,5.0,6.0,6.0,5.0,6.0,6.0,4.0,6.0,5.0,5.0,6.0,3.0,5.0,1.0,1.0,1.0,3.0,4.0,5.0,4.0,5.0,6.0,4.0,4.0,,3.0,4.0,1.0,4.0,1.0,2.0,,1.3,2.0,2.333333,3.333333,3.0,5.0,4.666667,5.6
33345,1970,2020-04-06 14:59:44,EN,42,Male,"College degree, bachelor, master",Up to 12 years of school,Not employed,United States,no,Texas,Married/cohabiting,3.0,Yes,Life carries on with minor changes,1.0,1.0,Program A,,No,2.0,2.0,2.0,4.0,4.0,2.0,4.0,4.0,2.0,2.0,1.0,1.0,2.0,7.0,8.0,7.0,7.0,8.0,5.0,7.0,5.0,4.0,4.0,4.0,4.0,4.0,4.0,6.0,5.0,5.0,1.0,3.0,2.0,2.0,1.0,5.0,3.0,4.0,2.0,5.0,5.0,6.0,1.0,6.0,6.0,4.0,3.0,5.0,5.0,5.0,5.0,5.0,4.0,5.0,5.0,2.0,4.0,3.0,3.0,5.0,99.0,4.0,99.0,5.0,5.0,2.0,5.0,2.0,3.0,4.0,5.0,5.0,,5.0,6.0,3.0,6.0,6.0,5.0,5.0,4.0,6.0,6.0,5.0,3.0,5.0,4.0,5.0,3.0,5.0,5.0,5.0,5.0,5.0,5.0,3.0,5.0,6.0,5.0,,5.0,5.0,1.0,2.0,3.0,2.0,,2.0,1.333333,1.666667,4.0,5.333333,6.0,4.333333,5.2
33364,446,2020-04-07 14:29:55,FI,58,Female,"College degree, bachelor, master",Up to 12 years of school,Full time employed,United States,yes,,Married/cohabiting,0.0,Yes,Life carries on with minor changes,,,,Program C,No,1.0,1.0,2.0,5.0,4.0,1.0,5.0,5.0,2.0,1.0,2.0,1.0,2.0,,,,,,,,,,,,,,,,,,,,,,,,,,,,,,,,,,,,,,,,,,,,,,,,,,,,,,,,,,,,,,,,,,,,,,,,,,,,,,,,,,,,,,,,,,,,,,,1.3,1.666667,,,,,,
33384,646,2020-04-06 14:28:45,EN,38,Female,"College degree, bachelor, master",College degree,Full time employed,United States,no,NY,Married/cohabiting,1.0,Yes,Isolated,1.0,1.0,,Program D,No,3.0,3.0,4.0,3.0,3.0,3.0,4.0,3.0,3.0,2.0,1.0,3.0,3.0,3.0,6.0,7.0,8.0,8.0,6.0,4.0,9.0,5.0,5.0,5.0,5.0,5.0,7.0,5.0,5.0,5.0,1.0,2.0,4.0,4.0,5.0,4.0,4.0,4.0,2.0,4.0,4.0,3.0,2.0,5.0,6.0,4.0,4.0,5.0,6.0,5.0,4.0,3.0,3.0,2.0,4.0,2.0,3.0,6.0,6.0,5.0,6.0,6.0,4.0,2.0,2.0,3.0,4.0,3.0,2.0,2.0,4.0,2.0,,6.0,6.0,5.0,6.0,6.0,5.0,6.0,6.0,6.0,6.0,3.0,3.0,6.0,4.0,5.0,2.0,4.0,4.0,5.0,5.0,5.0,5.0,2.0,5.0,5.0,5.0,,4.0,5.0,5.0,4.0,5.0,1.0,,2.9,2.333333,4.0,4.333333,3.666667,5.333333,4.0,5.8
33428,489,2020-04-07 14:15:52,EN,42,Male,PhD/Doctorate,College degree,Full time employed,United States,no,VA,Married/cohabiting,6.0,Yes,Isolated,3.0,3.0,,Program D,Yes,3.0,4.0,4.0,3.0,3.0,2.0,4.0,2.0,2.0,2.0,2.0,2.0,2.0,7.0,8.0,6.0,7.0,6.0,2.0,3.0,1.0,5.0,5.0,4.0,6.0,6.0,2.0,4.0,2.0,5.0,2.0,2.0,4.0,4.0,3.0,4.0,3.0,3.0,4.0,5.0,4.0,5.0,2.0,5.0,5.0,3.0,1.0,5.0,,,,,,,,,,,,,,,,,,,,,,,,,,,,,,,,,,,,,,,,,,,,,,,,,,,,,,,,,,,,2.9,2.0,3.333333,3.0,4.666667,5.0,4.666667,
33541,466,2020-04-06 13:48:53,EN,46,Female,"College degree, bachelor, master",College degree,Not employed,United States,no,California,Married/cohabiting,2.0,No,Life carries on with minor changes,1.0,1.0,Program A,,No,1.0,2.0,1.0,5.0,4.0,1.0,5.0,5.0,2.0,1.0,1.0,2.0,3.0,8.0,10.0,3.0,7.0,6.0,7.0,10.0,3.0,5.0,5.0,5.0,5.0,5.0,3.0,6.0,6.0,6.0,1.0,4.0,5.0,3.0,3.0,4.0,6.0,6.0,2.0,5.0,5.0,2.0,2.0,4.0,6.0,6.0,2.0,6.0,6.0,4.0,4.0,5.0,6.0,2.0,1.0,5.0,4.0,4.0,3.0,2.0,5.0,5.0,4.0,5.0,5.0,2.0,1.0,3.0,5.0,6.0,4.0,2.0,,6.0,6.0,6.0,6.0,6.0,6.0,6.0,6.0,4.0,6.0,4.0,6.0,6.0,4.0,6.0,6.0,4.0,4.0,5.0,5.0,3.0,5.0,5.0,6.0,1.0,4.0,,4.0,5.0,3.0,6.0,5.0,2.0,,1.3,2.0,3.0,5.666667,4.0,5.0,5.666667,5.8
33564,592,2020-04-06 13:45:32,ZH-T,25,Male,PhD/Doctorate,PhD/Doctorate,Not employed,United States,yes,<U+83EF><U+76DB><U+9813><U+5DDE>,Single,0.0,No,Life carries on with minor changes,0.0,0.0,Program B,,Not sure,2.0,3.0,2.0,4.0,3.0,2.0,3.0,3.0,2.0,2.0,1.0,1.0,4.0,7.0,9.0,8.0,8.0,8.0,9.0,,9.0,5.0,6.0,4.0,4.0,4.0,4.0,6.0,6.0,6.0,6.0,6.0,6.0,2.0,4.0,5.0,4.0,4.0,4.0,3.0,4.0,5.0,2.0,5.0,5.0,4.0,4.0,5.0,3.0,3.0,3.0,5.0,4.0,2.0,1.0,3.0,1.0,5.0,4.0,5.0,5.0,5.0,2.0,2.0,1.0,2.0,2.0,2.0,4.0,4.0,3.0,1.0,Pray for the world. Someone needs to take responsibility for this condition.,4.0,4.0,3.0,4.0,4.0,4.0,4.0,3.0,3.0,4.0,5.0,4.0,5.0,3.0,4.0,5.0,6.0,5.0,5.0,4.0,4.0,5.0,3.0,6.0,1.0,5.0,,4.0,5.0,5.0,5.0,4.0,5.0,,2.4,2.0,2.666667,3.666667,4.0,5.0,4.0,3.7
33650,488,2020-04-06 13:20:17,ZH-T,40,Female,"College degree, bachelor, master",Some College or equivalent,Full time employed,United States,yes,California,Single,0.0,Yes,Life carries on with minor changes,,,,Program C,,4.0,3.0,3.0,3.0,3.0,4.0,4.0,2.0,3.0,2.0,3.0,2.0,3.0,6.0,8.0,6.0,6.0,5.0,2.0,,4.0,5.0,5.0,5.0,5.0,5.0,2.0,3.0,6.0,6.0,4.0,3.0,6.0,4.0,5.0,2.0,2.0,3.0,5.0,3.0,5.0,4.0,4.0,4.0,5.0,3.0,4.0,4.0,3.0,5.0,99.0,5.0,5.0,5.0,4.0,5.0,99.0,5.0,4.0,5.0,5.0,5.0,5.0,3.0,5.0,4.0,5.0,5.0,5.0,5.0,5.0,5.0,,4.0,4.0,3.0,4.0,3.0,4.0,4.0,4.0,4.0,3.0,2.0,4.0,5.0,5.0,5.0,5.0,5.0,5.0,4.0,5.0,5.0,4.0,5.0,5.0,2.0,4.0,,4.0,5.0,5.0,2.0,5.0,2.0,many household items (mostly imported from China and Asia) become expensive and not easy to buy.,3.1,2.666667,4.666667,2.333333,4.0,4.0,3.333333,3.7
33707,709,2020-04-06 13:10:08,IT,36,Female,PhD/Doctorate,Some College or equivalent,Full time employed,United States,yes,Ohio - USA,Married/cohabiting,0.0,No,Isolated,1.0,0.0,Program B,,No,1.0,5.0,3.0,4.0,4.0,3.0,4.0,4.0,3.0,1.0,1.0,3.0,3.0,6.0,8.0,6.0,8.0,8.0,4.0,8.0,6.0,5.0,5.0,5.0,5.0,5.0,8.0,2.0,6.0,5.0,1.0,2.0,4.0,6.0,6.0,3.0,4.0,2.0,4.0,5.0,2.0,5.0,6.0,2.0,5.0,6.0,6.0,5.0,6.0,6.0,99.0,6.0,2.0,1.0,1.0,1.0,99.0,6.0,6.0,2.0,2.0,5.0,6.0,1.0,1.0,1.0,2.0,2.0,6.0,2.0,6.0,1.0,,6.0,5.0,5.0,6.0,6.0,5.0,6.0,6.0,6.0,6.0,5.0,5.0,6.0,4.0,5.0,1.0,1.0,1.0,6.0,5.0,6.0,4.0,5.0,6.0,1.0,5.0,,6.0,6.0,6.0,6.0,6.0,6.0,Sono preoccupata per il mio lavoro e per l'economia del Paese dopo il virus,2.4,2.333333,5.333333,3.0,4.0,2.666667,4.0,5.7
33722,371,2020-04-07 13:01:47,EN,20,Male,"Some College, short continuing education or equivalent",College degree,Student,United States,no,Oregon,Single,0.0,Yes,Life carries on with minor changes,4.0,0.0,,Program D,No,2.0,2.0,3.0,2.0,2.0,2.0,3.0,4.0,2.0,2.0,2.0,3.0,3.0,4.0,7.0,3.0,4.0,3.0,5.0,5.0,4.0,2.0,4.0,2.0,2.0,4.0,3.0,3.0,5.0,3.0,4.0,5.0,2.0,4.0,4.0,2.0,3.0,2.0,5.0,4.0,5.0,4.0,5.0,4.0,5.0,4.0,5.0,5.0,,,,,,,,,,,,,,,,,,,,,,,,,,,,,,,,,,,,,,,,,,,,,,,,,,,,,,,,,,,,2.6,2.666667,4.333333,2.333333,4.333333,3.666667,3.666667,
33879,6195,2020-04-06 14:03:35,EN,26,Female,"Some College, short continuing education or equivalent",College degree,Student,United States,no,texas,Married/cohabiting,1.0,Yes,Life carries on with minor changes,1.0,1.0,,Program D,No,3.0,4.0,4.0,4.0,3.0,5.0,3.0,3.0,3.0,5.0,3.0,2.0,3.0,5.0,7.0,2.0,2.0,3.0,4.0,5.0,1.0,5.0,5.0,5.0,5.0,5.0,0.0,6.0,6.0,5.0,2.0,4.0,3.0,4.0,3.0,5.0,4.0,2.0,3.0,5.0,6.0,5.0,4.0,5.0,6.0,5.0,4.0,6.0,6.0,5.0,5.0,2.0,4.0,5.0,4.0,4.0,4.0,5.0,4.0,5.0,6.0,4.0,4.0,3.0,2.0,2.0,5.0,4.0,3.0,2.0,6.0,3.0,,6.0,5.0,5.0,6.0,6.0,5.0,6.0,6.0,5.0,6.0,2.0,4.0,5.0,2.0,5.0,5.0,2.0,2.0,4.0,4.0,4.0,2.0,4.0,4.0,5.0,4.0,,4.0,4.0,4.0,2.0,2.0,2.0,,3.5,2.666667,3.0,3.333333,5.333333,4.666667,4.666667,5.6
34013,399,2020-04-07 11:58:33,EL,28,Male,"College degree, bachelor, master",College degree,Student,United States,no,<U+0391><U+03A4><U+03A4><U+0399><U+039A><U+0397>,,0.0,Yes,Isolated,0.0,0.0,,Program D,No,2.0,5.0,3.0,5.0,2.0,2.0,3.0,4.0,2.0,2.0,5.0,2.0,5.0,4.0,8.0,9.0,8.0,8.0,7.0,5.0,9.0,6.0,6.0,6.0,6.0,6.0,5.0,5.0,6.0,6.0,5.0,2.0,5.0,,,,,,,,,,,,,,,,,,,,,,,,,,,,,,,,,,,,,,,,,,,,,,,,,,,,,,,,,,,,,,,,,,,,,,,,,,,2.6,4.0,,,,,,
34105,342,2020-04-06 11:35:37,ZH-T,25,Female,PhD/Doctorate,College degree,Student,United States,yes,NY,Single,0.0,No,Isolated,2.0,0.0,,Program D,No,3.0,4.0,4.0,4.0,1.0,4.0,3.0,2.0,4.0,3.0,3.0,1.0,5.0,4.0,6.0,7.0,7.0,6.0,2.0,,3.0,3.0,1.0,5.0,5.0,5.0,2.0,4.0,6.0,6.0,1.0,2.0,6.0,3.0,1.0,6.0,4.0,5.0,3.0,4.0,5.0,4.0,2.0,3.0,2.0,6.0,5.0,5.0,99.0,5.0,99.0,6.0,99.0,99.0,99.0,5.0,99.0,5.0,5.0,5.0,5.0,5.0,4.0,3.0,99.0,99.0,5.0,1.0,6.0,99.0,6.0,5.0,,3.0,4.0,3.0,3.0,4.0,5.0,4.0,2.0,6.0,4.0,2.0,2.0,3.0,1.0,4.0,3.0,4.0,3.0,4.0,4.0,5.0,3.0,3.0,6.0,1.0,4.0,,2.0,4.0,4.0,3.0,5.0,2.0,,3.6,3.0,1.666667,4.333333,4.333333,3.333333,4.333333,3.8
34268,114,2020-04-07 10:52:25,EN,31,Other/would rather not say,PhD/Doctorate,,Student,United States,yes,,,,,,,,,,,,,,,,,,,,,,,,,,,,,,,,,,,,,,,,,,,,,,,,,,,,,,,,,,,,,,,,,,,,,,,,,,,,,,,,,,,,,,,,,,,,,,,,,,,,,,,,,,,,,,,,,,,,,,,,,,,,,
34351,883,2020-04-06 10:48:23,EN,60,Female,"Some College, short continuing education or equivalent",College degree,Retired,United States,no,Oregon,Married/cohabiting,0.0,Yes,Isolated,2.0,0.0,Program A,,No,3.0,4.0,4.0,3.0,3.0,2.0,3.0,3.0,3.0,3.0,3.0,1.0,5.0,6.0,8.0,7.0,9.0,10.0,2.0,7.0,7.0,5.0,5.0,5.0,6.0,6.0,5.0,5.0,6.0,6.0,6.0,3.0,4.0,5.0,5.0,4.0,6.0,6.0,2.0,6.0,6.0,6.0,1.0,6.0,6.0,6.0,3.0,6.0,6.0,99.0,2.0,6.0,4.0,6.0,1.0,6.0,1.0,6.0,6.0,5.0,4.0,5.0,1.0,4.0,2.0,6.0,6.0,1.0,3.0,2.0,5.0,1.0,Our roommate wont stay home,6.0,6.0,6.0,5.0,6.0,6.0,6.0,6.0,6.0,6.0,6.0,6.0,6.0,1.0,6.0,5.0,4.0,4.0,5.0,5.0,5.0,6.0,5.0,6.0,4.0,6.0,,6.0,4.0,4.0,5.0,3.0,2.0,Not knowing when my husband can return to work and how this is affecting us financially is extremely worrisome and stressful,3.1,3.0,4.333333,5.666667,6.0,6.0,5.333333,5.9
34392,2574,2020-04-06 11:06:58,SME,32,Male,"College degree, bachelor, master",,Full time employed,United States,yes,"Dallas, Texas",Married/cohabiting,0.0,Yes,Life carries on with minor changes,2.0,0.0,,Program D,No,3.0,2.0,2.0,5.0,5.0,3.0,5.0,3.0,3.0,1.0,2.0,3.0,2.0,7.0,8.0,9.0,9.0,9.0,3.0,7.0,7.0,4.0,5.0,4.0,6.0,6.0,6.0,6.0,5.0,5.0,2.0,5.0,1.0,2.0,2.0,5.0,5.0,4.0,5.0,6.0,4.0,6.0,2.0,6.0,6.0,6.0,4.0,5.0,2.0,1.0,99.0,5.0,4.0,5.0,1.0,1.0,99.0,5.0,1.0,4.0,2.0,5.0,99.0,4.0,1.0,1.0,3.0,1.0,2.0,1.0,5.0,6.0,,6.0,6.0,6.0,6.0,6.0,6.0,6.0,6.0,6.0,6.0,5.0,1.0,6.0,5.0,6.0,5.0,1.0,1.0,5.0,2.0,6.0,4.0,6.0,6.0,1.0,5.0,Juegos de mesa con mi esposa.,2.0,4.0,2.0,2.0,2.0,2.0,,2.0,2.333333,2.0,3.666667,5.333333,5.666667,4.666667,6.0
34417,369,2020-04-07 10:26:25,EN,19,Female,Up to 12 years of school,Some College or equivalent,Part time employed,United States,no,Florida,Single,0.0,Yes,Isolated,4.0,1.0,,Program D,No,4.0,4.0,4.0,2.0,2.0,4.0,2.0,2.0,4.0,5.0,3.0,3.0,3.0,,,,,,,,,,,,,,,,,,,,,,,,,,,,,,,,,,,,,,,,,,,,,,,,,,,,,,,,,,,,,,,,,,,,,,,,,,,,,,,,,,,,,,,,,,,,,,,4.1,3.0,,,,,,
34531,1740,2020-04-06 10:19:27,EN,34,Female,"College degree, bachelor, master",Some College or equivalent,Full time employed,United States,no,Virginia,Married/cohabiting,0.0,Yes,Isolated,1.0,0.0,,Program D,No,4.0,1.0,4.0,5.0,2.0,3.0,3.0,4.0,4.0,1.0,1.0,2.0,2.0,0.0,1.0,2.0,4.0,1.0,1.0,8.0,5.0,5.0,6.0,4.0,6.0,6.0,4.0,6.0,6.0,6.0,1.0,1.0,2.0,6.0,5.0,6.0,5.0,5.0,1.0,4.0,6.0,6.0,1.0,5.0,6.0,5.0,3.0,6.0,2.0,3.0,99.0,5.0,5.0,4.0,1.0,3.0,99.0,6.0,5.0,6.0,6.0,6.0,5.0,5.0,3.0,3.0,4.0,4.0,3.0,1.0,2.0,6.0,,6.0,5.0,5.0,6.0,5.0,5.0,6.0,6.0,5.0,6.0,3.0,6.0,5.0,5.0,5.0,5.0,3.0,5.0,5.0,4.0,6.0,6.0,6.0,4.0,4.0,6.0,,2.0,5.0,6.0,4.0,5.0,1.0,"I am supposed to be 8 weeks pregnant this week. I was supposed to do an ultrasound this week to see if there is a baby. I have been arguing with the obgyn clinic because that have canceled the ultrasounds saying this is not essential offering only postponed video calls with the doctor. This is absolutely non acceptable regarding 1. Not considering early pregnancies essential. 2. Assuming I am fine and still being pregnant by a phone call (no one can defy if I am still pregnant by a phone call) 3. In case I am still pregnant, they postponed the ultrasound to the 13th week of the pregnancy, which denies me the knowing of that the  baby is having a normal growth and denying me the chance to take important decisions on time if something is wrong. 13th week is too late and the government or whoever is responsible should consider early pregnancies ESSENTIAL!",2.7,1.666667,4.0,5.333333,5.333333,5.666667,5.0,5.5
34601,154,2020-04-07 09:33:17,RU,40,Female,"College degree, bachelor, master",College degree,Student,United States,no,,Married/cohabiting,2.0,Yes,Isolated,0.0,1.0,,Program D,,,,,,,,,,,,,,,,,,,,,,,,,,,,,,,,,,,,,,,,,,,,,,,,,,,,,,,,,,,,,,,,,,,,,,,,,,,,,,,,,,,,,,,,,,,,,,,,,,,,,,,,,,,,,,,,,,,,
34638,1321,2020-04-06 09:41:13,EN,51,Female,"Some College, short continuing education or equivalent",Up to 12 years of school,Part time employed,United States,no,FL,Divorced/widowed,3.0,Yes,Isolated,2.0,1.0,Program B,,No,3.0,3.0,4.0,4.0,3.0,3.0,4.0,3.0,2.0,3.0,3.0,3.0,3.0,8.0,9.0,7.0,8.0,7.0,7.0,9.0,5.0,5.0,6.0,5.0,5.0,5.0,4.0,4.0,5.0,6.0,1.0,3.0,3.0,4.0,3.0,6.0,6.0,6.0,1.0,6.0,6.0,6.0,4.0,5.0,6.0,5.0,3.0,6.0,5.0,4.0,2.0,2.0,4.0,5.0,5.0,5.0,3.0,5.0,99.0,5.0,5.0,5.0,4.0,4.0,3.0,5.0,3.0,2.0,1.0,1.0,4.0,99.0,,6.0,6.0,6.0,6.0,5.0,6.0,6.0,6.0,6.0,6.0,1.0,4.0,6.0,3.0,6.0,5.0,4.0,4.0,4.0,6.0,4.0,1.0,5.0,4.0,6.0,2.0,,5.0,5.0,4.0,4.0,4.0,5.0,"I actively avoid the news reports.  Typically, I only allow myself to look at news regarding the COVID19 crisis once per day.  The only exception is if a friend or colleague shares something. ",2.8,3.0,2.666667,6.0,6.0,4.666667,5.0,5.9
34711,471,2020-04-07 09:09:14,SME,41,Female,"College degree, bachelor, master",College degree,Full time employed,United States,yes,California,Married/cohabiting,1.0,Yes,Isolated,1.0,1.0,Program B,,No,5.0,1.0,5.0,5.0,3.0,1.0,5.0,1.0,3.0,1.0,1.0,1.0,5.0,4.0,5.0,7.0,10.0,8.0,10.0,10.0,6.0,6.0,6.0,6.0,6.0,6.0,4.0,6.0,6.0,6.0,6.0,6.0,6.0,6.0,5.0,6.0,3.0,1.0,4.0,5.0,5.0,4.0,1.0,4.0,4.0,6.0,1.0,3.0,,,,,,,,,,,,,,,,,,,,,,,,,,,,,,,,,,,,,,,,,,,,,,,,,,,,,,,,,,,,2.6,2.333333,4.0,2.333333,4.666667,4.666667,5.0,
34845,526,2020-04-07 08:38:30,EN,63,Female,"College degree, bachelor, master",Up to 12 years of school,Retired,United States,no,Michigan,Single,0.0,No,Isolated,1.0,0.0,Program A,,No,3.0,1.0,3.0,5.0,3.0,2.0,3.0,3.0,3.0,1.0,3.0,2.0,3.0,9.0,9.0,10.0,10.0,10.0,10.0,10.0,7.0,6.0,6.0,6.0,6.0,6.0,5.0,6.0,6.0,6.0,6.0,5.0,2.0,5.0,5.0,5.0,5.0,5.0,2.0,4.0,5.0,5.0,4.0,5.0,5.0,5.0,2.0,5.0,,,,,,,,,,,,,,,,,,,,,,,,,,,,,,,,,,,,,,,,,,,,,,,,,,,,,,,,,,,,2.3,2.666667,4.0,5.0,4.666667,4.333333,5.0,
34915,2764,2020-04-07 08:59:14,EN,77,Female,"College degree, bachelor, master",Some College or equivalent,Retired,United States,no,New Jersey,Single,0.0,Yes,Isolated,0.0,0.0,Program A,,No,2.0,2.0,3.0,5.0,4.0,2.0,5.0,4.0,1.0,1.0,1.0,1.0,1.0,9.0,10.0,0.0,7.0,9.0,7.0,8.0,,6.0,6.0,6.0,6.0,6.0,0.0,6.0,6.0,6.0,1.0,6.0,6.0,5.0,5.0,5.0,6.0,6.0,1.0,5.0,6.0,1.0,1.0,5.0,6.0,5.0,1.0,6.0,99.0,1.0,99.0,99.0,4.0,4.0,1.0,99.0,99.0,6.0,1.0,4.0,1.0,1.0,99.0,99.0,1.0,1.0,4.0,1.0,1.0,1.0,4.0,1.0,"That the president of the US is compeletly incapable of being the leader that is needed in a national and world crisis.His reluctance to lead and act haskilled and sickened many people. It is obvious that he is utterly lacking in compassion, the truth about COVID-19 and is destroying this country the civil service and now it's peoples. and its people.  people.",6.0,6.0,6.0,6.0,6.0,6.0,6.0,6.0,6.0,6.0,1.0,1.0,6.0,1.0,6.0,1.0,1.0,1.0,5.0,4.0,6.0,2.0,6.0,6.0,1.0,2.0,,1.0,5.0,1.0,1.0,1.0,5.0,"Isolation, as it is not a natural condition for human beings. We need other people in our lives, not necessarily every day but to be sociable with others we care about, who may need our concern, advice, and presence. This is to be human. Isolation is not easy for anyone but if one must adapt  one must: to protect one's self and others.",1.7,1.0,4.0,6.0,4.0,5.666667,5.666667,6.0
34922,1187,2020-04-06 08:32:03,EN,60,Female,"Some College, short continuing education or equivalent",Up to 12 years of school,Full time employed,United States,no,Virginia,Married/cohabiting,0.0,Not sure,Isolated,1.0,0.0,,Program D,No,1.0,5.0,1.0,5.0,5.0,1.0,5.0,5.0,1.0,1.0,1.0,1.0,3.0,4.0,7.0,2.0,7.0,,9.0,9.0,1.0,5.0,5.0,5.0,5.0,5.0,0.0,6.0,6.0,6.0,2.0,5.0,5.0,4.0,2.0,5.0,4.0,3.0,5.0,4.0,4.0,3.0,3.0,5.0,5.0,5.0,4.0,6.0,3.0,99.0,99.0,5.0,5.0,2.0,3.0,2.0,99.0,6.0,4.0,5.0,4.0,5.0,6.0,2.0,2.0,2.0,2.0,99.0,3.0,2.0,3.0,1.0,I hope this experience with change people/society for the better. More care and compassion for others.,4.0,4.0,4.0,5.0,5.0,5.0,5.0,5.0,5.0,4.0,2.0,2.0,3.0,2.0,2.0,2.0,1.0,2.0,5.0,4.0,4.0,5.0,4.0,4.0,5.0,4.0,,5.0,3.0,5.0,4.0,5.0,2.0,My work is closed but I am still receiving my salary.,1.4,1.666667,2.666667,3.0,3.666667,4.666667,4.666667,4.6
34988,1282,2020-04-06 08:13:27,EN,71,Female,"College degree, bachelor, master",Up to 9 years of school,Self-employed,United States,no,Vermont,Divorced/widowed,0.0,Yes,Isolated,0.0,0.0,,Program D,No,2.0,3.0,3.0,4.0,4.0,2.0,5.0,4.0,5.0,3.0,5.0,3.0,5.0,5.0,9.0,1.0,5.0,5.0,6.0,8.0,0.0,6.0,6.0,6.0,6.0,6.0,1.0,6.0,6.0,6.0,6.0,4.0,4.0,6.0,4.0,4.0,6.0,6.0,4.0,6.0,6.0,6.0,4.0,4.0,6.0,2.0,1.0,6.0,6.0,1.0,99.0,6.0,2.0,4.0,99.0,99.0,99.0,6.0,3.0,4.0,2.0,2.0,99.0,5.0,1.0,99.0,6.0,,2.0,2.0,3.0,99.0,,6.0,6.0,6.0,6.0,6.0,6.0,6.0,6.0,6.0,6.0,1.0,1.0,6.0,1.0,6.0,1.0,5.0,1.0,3.0,4.0,3.0,1.0,,6.0,1.0,2.0,,1.0,,6.0,4.0,1.0,4.0,,2.5,4.333333,4.333333,5.0,6.0,4.333333,4.666667,6.0
35042,725,2020-04-06 07:52:12,EN,43,Male,PhD/Doctorate,PhD/Doctorate,Full time employed,United States,no,Vermont,Married/cohabiting,2.0,No,Isolated,1.0,2.0,,Program D,Yes,2.0,3.0,2.0,4.0,3.0,2.0,4.0,3.0,1.0,2.0,1.0,1.0,2.0,6.0,7.0,3.0,8.0,8.0,6.0,7.0,4.0,5.0,5.0,5.0,6.0,5.0,4.0,5.0,4.0,4.0,3.0,5.0,4.0,3.0,2.0,5.0,5.0,4.0,4.0,4.0,5.0,3.0,3.0,5.0,4.0,3.0,3.0,5.0,3.0,5.0,4.0,4.0,4.0,3.0,3.0,2.0,3.0,6.0,3.0,4.0,4.0,5.0,4.0,4.0,2.0,2.0,5.0,3.0,4.0,2.0,5.0,5.0,,5.0,5.0,5.0,5.0,4.0,5.0,5.0,5.0,5.0,5.0,4.0,5.0,5.0,5.0,5.0,3.0,2.0,2.0,4.0,5.0,4.0,4.0,5.0,4.0,3.0,4.0,,4.0,4.0,5.0,5.0,3.0,5.0,,2.2,1.333333,2.333333,4.0,4.0,4.333333,4.0,4.9
35103,802,2020-04-06 07:39:49,EN,44,Female,"Some College, short continuing education or equivalent",Up to 12 years of school,Not employed,United States,no,New York,Divorced/widowed,0.0,Yes,Isolated,2.0,0.0,,Program D,No,4.0,4.0,4.0,3.0,2.0,2.0,3.0,3.0,5.0,4.0,3.0,4.0,5.0,3.0,10.0,0.0,1.0,8.0,3.0,9.0,0.0,6.0,6.0,6.0,6.0,6.0,0.0,6.0,6.0,6.0,6.0,2.0,6.0,5.0,6.0,5.0,5.0,6.0,2.0,4.0,6.0,5.0,5.0,5.0,5.0,5.0,2.0,6.0,6.0,6.0,6.0,6.0,6.0,4.0,99.0,4.0,99.0,6.0,5.0,6.0,6.0,6.0,99.0,4.0,6.0,6.0,6.0,4.0,6.0,4.0,6.0,4.0,,6.0,6.0,5.0,6.0,6.0,6.0,6.0,6.0,5.0,6.0,2.0,1.0,6.0,4.0,5.0,,2.0,5.0,6.0,,6.0,5.0,5.0,6.0,1.0,6.0,,1.0,6.0,6.0,5.0,5.0,2.0,,3.6,4.0,4.333333,5.333333,5.0,4.0,5.333333,5.8
35158,679,2020-04-06 07:26:38,EN,22,Female,"Some College, short continuing education or equivalent",Up to 12 years of school,Part time employed,United States,no,Virginia,Single,0.0,Yes,Life carries on with minor changes,1.0,0.0,Program A,,Yes,4.0,4.0,4.0,2.0,2.0,4.0,2.0,2.0,4.0,4.0,3.0,3.0,3.0,6.0,9.0,5.0,4.0,5.0,6.0,7.0,3.0,2.0,5.0,4.0,3.0,4.0,0.0,5.0,2.0,2.0,3.0,2.0,1.0,2.0,4.0,6.0,5.0,4.0,4.0,4.0,5.0,4.0,2.0,5.0,4.0,4.0,4.0,4.0,3.0,5.0,99.0,3.0,2.0,5.0,2.0,2.0,99.0,4.0,4.0,5.0,5.0,5.0,5.0,6.0,5.0,4.0,5.0,6.0,5.0,2.0,6.0,2.0,,5.0,5.0,5.0,5.0,5.0,4.0,5.0,5.0,5.0,5.0,4.0,5.0,5.0,4.0,3.0,2.0,6.0,4.0,5.0,4.0,2.0,3.0,3.0,5.0,2.0,4.0,,2.0,2.0,2.0,2.0,2.0,2.0,,4.0,3.0,2.333333,4.0,4.333333,4.666667,3.666667,4.9
35193,1448,2020-04-06 07:32:34,EN,74,Female,PhD/Doctorate,Some College or equivalent,Self-employed,United States,no,Vermont,Married/cohabiting,2.0,Yes,Isolated,1.0,0.0,Program A,,No,3.0,4.0,4.0,5.0,4.0,4.0,5.0,1.0,4.0,3.0,1.0,3.0,2.0,7.0,10.0,1.0,7.0,10.0,9.0,9.0,,4.0,5.0,5.0,6.0,6.0,1.0,6.0,5.0,5.0,2.0,5.0,4.0,4.0,3.0,5.0,4.0,3.0,4.0,5.0,5.0,1.0,1.0,5.0,5.0,5.0,1.0,5.0,2.0,6.0,6.0,99.0,1.0,3.0,99.0,2.0,99.0,2.0,6.0,5.0,5.0,5.0,6.0,2.0,99.0,2.0,4.0,2.0,5.0,2.0,6.0,4.0,,6.0,6.0,6.0,6.0,6.0,6.0,6.0,6.0,6.0,6.0,4.0,4.0,6.0,4.0,6.0,2.0,1.0,1.0,2.0,6.0,4.0,5.0,6.0,5.0,2.0,5.0,,4.0,6.0,6.0,6.0,1.0,6.0,,3.1,2.0,3.0,3.333333,3.666667,5.333333,5.333333,6.0
35483,1547,2020-04-06 06:34:56,EN,38,Female,"College degree, bachelor, master",College degree,Full time employed,United States,no,Illinois,Married/cohabiting,2.0,Yes,Isolated,4.0,2.0,Program B,,Yes,2.0,3.0,3.0,4.0,4.0,2.0,4.0,3.0,2.0,3.0,3.0,,4.0,8.0,9.0,2.0,8.0,8.0,5.0,10.0,3.0,5.0,5.0,5.0,6.0,6.0,0.0,5.0,6.0,5.0,1.0,5.0,5.0,3.0,1.0,6.0,5.0,4.0,2.0,6.0,5.0,4.0,4.0,6.0,6.0,5.0,1.0,6.0,4.0,6.0,6.0,3.0,5.0,5.0,4.0,5.0,6.0,6.0,3.0,5.0,5.0,6.0,4.0,4.0,4.0,4.0,5.0,5.0,4.0,2.0,6.0,3.0,,6.0,6.0,6.0,6.0,6.0,6.0,6.0,6.0,6.0,6.0,3.0,5.0,5.0,5.0,5.0,1.0,1.0,1.0,4.0,6.0,2.0,4.0,4.0,4.0,4.0,3.0,,4.0,4.0,3.0,3.0,1.0,3.0,,2.4,3.5,1.666667,4.666667,5.0,5.0,5.666667,6.0
35874,591,2020-04-06 04:51:54,EN,37,Male,PhD/Doctorate,College degree,Full time employed,United States,no,South Carolina,Married/cohabiting,2.0,No,Life carries on with minor changes,4.0,4.0,,Program D,No,3.0,2.0,3.0,4.0,4.0,2.0,3.0,4.0,2.0,2.0,1.0,1.0,1.0,7.0,7.0,5.0,5.0,5.0,7.0,8.0,5.0,3.0,5.0,3.0,5.0,5.0,5.0,5.0,3.0,3.0,3.0,2.0,5.0,3.0,3.0,3.0,3.0,2.0,4.0,5.0,5.0,5.0,2.0,5.0,5.0,5.0,2.0,5.0,3.0,4.0,3.0,4.0,3.0,4.0,4.0,3.0,5.0,4.0,3.0,4.0,4.0,4.0,3.0,3.0,3.0,3.0,3.0,4.0,3.0,3.0,3.0,3.0,,6.0,5.0,5.0,6.0,6.0,5.0,5.0,6.0,5.0,5.0,5.0,5.0,4.0,3.0,5.0,4.0,1.0,1.0,4.0,3.0,3.0,3.0,5.0,4.0,3.0,4.0,,5.0,5.0,3.0,3.0,4.0,4.0,,2.3,1.0,3.333333,2.666667,5.0,5.0,5.0,5.4
36762,1471,2020-04-06 01:59:30,EN,77,Male,PhD/Doctorate,Some College or equivalent,Retired,United States,no,California,Married/cohabiting,1.0,Yes,Isolated,1.0,0.0,,Program D,No,2.0,3.0,3.0,4.0,3.0,3.0,4.0,4.0,5.0,2.0,2.0,3.0,3.0,6.0,8.0,5.0,7.0,8.0,4.0,6.0,4.0,6.0,6.0,6.0,6.0,6.0,3.0,5.0,5.0,5.0,3.0,4.0,5.0,5.0,2.0,4.0,3.0,2.0,5.0,4.0,5.0,4.0,3.0,5.0,6.0,5.0,4.0,5.0,2.0,99.0,5.0,99.0,5.0,5.0,99.0,3.0,99.0,5.0,5.0,6.0,6.0,99.0,99.0,4.0,3.0,4.0,4.0,2.0,4.0,4.0,5.0,4.0,,5.0,5.0,6.0,5.0,6.0,6.0,5.0,5.0,6.0,5.0,4.0,6.0,6.0,5.0,5.0,4.0,2.0,2.0,4.0,5.0,5.0,4.0,4.0,5.0,1.0,2.0,,4.0,6.0,6.0,5.0,3.0,5.0,,2.7,2.666667,3.333333,2.333333,4.333333,5.0,4.333333,5.4
36801,1151,2020-04-06 01:45:35,SME,32,Male,"College degree, bachelor, master",Some College or equivalent,Full time employed,United States,yes,COLORADO,Single,0.0,No,Isolated,0.0,0.0,,Program C,No,3.0,2.0,3.0,5.0,4.0,2.0,4.0,4.0,2.0,2.0,2.0,1.0,2.0,6.0,8.0,2.0,9.0,10.0,9.0,9.0,9.0,6.0,6.0,6.0,6.0,6.0,7.0,6.0,6.0,6.0,1.0,5.0,4.0,2.0,1.0,6.0,4.0,5.0,4.0,4.0,5.0,4.0,3.0,5.0,5.0,5.0,3.0,5.0,6.0,4.0,99.0,6.0,5.0,5.0,99.0,99.0,99.0,6.0,6.0,6.0,6.0,6.0,2.0,2.0,1.0,4.0,4.0,4.0,4.0,3.0,5.0,6.0,,6.0,5.0,5.0,5.0,5.0,5.0,5.0,5.0,5.0,6.0,5.0,3.0,6.0,4.0,6.0,5.0,4.0,4.0,5.0,4.0,5.0,5.0,5.0,5.0,3.0,5.0,,5.0,5.0,5.0,5.0,5.0,2.0,,2.1,1.666667,1.333333,4.0,4.333333,4.666667,4.666667,5.2
37425,826,2020-04-06 23:18:19,SME,30,Female,"College degree, bachelor, master",College degree,Full time employed,United States,yes,California,Married/cohabiting,0.0,Yes,Isolated,2.0,0.0,Program A,,No,4.0,2.0,5.0,4.0,4.0,2.0,4.0,3.0,3.0,1.0,1.0,1.0,4.0,9.0,10.0,3.0,7.0,7.0,5.0,5.0,5.0,6.0,6.0,6.0,6.0,5.0,0.0,5.0,5.0,5.0,1.0,4.0,4.0,6.0,6.0,4.0,4.0,3.0,5.0,4.0,5.0,4.0,2.0,5.0,6.0,4.0,4.0,4.0,6.0,4.0,1.0,6.0,1.0,1.0,1.0,2.0,1.0,6.0,5.0,6.0,6.0,6.0,1.0,3.0,4.0,3.0,4.0,1.0,1.0,1.0,6.0,6.0,,6.0,6.0,6.0,6.0,6.0,6.0,6.0,6.0,6.0,6.0,3.0,6.0,6.0,1.0,1.0,1.0,2.0,1.0,6.0,4.0,4.0,5.0,2.0,1.0,1.0,5.0,,6.0,5.0,6.0,,,3.0,,2.6,2.0,5.0,3.0,4.333333,5.333333,3.666667,6.0
37526,2836,2020-04-05 23:27:34,EN,31,Male,"College degree, bachelor, master",Up to 6 years of school,Full time employed,United States,yes,California,Married/cohabiting,1.0,Yes,Isolated,1.0,1.0,,Program C,Not sure,2.0,4.0,5.0,2.0,2.0,4.0,3.0,3.0,4.0,3.0,3.0,3.0,4.0,7.0,9.0,6.0,7.0,8.0,10.0,10.0,3.0,6.0,6.0,6.0,6.0,6.0,0.0,6.0,6.0,6.0,4.0,4.0,4.0,4.0,4.0,4.0,5.0,3.0,6.0,6.0,5.0,6.0,2.0,5.0,5.0,5.0,5.0,6.0,4.0,3.0,5.0,6.0,4.0,2.0,3.0,4.0,6.0,6.0,5.0,6.0,5.0,6.0,3.0,3.0,4.0,6.0,4.0,5.0,4.0,2.0,5.0,4.0,,6.0,4.0,4.0,5.0,5.0,5.0,5.0,6.0,4.0,2.0,4.0,3.0,6.0,4.0,6.0,1.0,4.0,4.0,6.0,4.0,3.0,4.0,3.0,6.0,6.0,5.0,,4.0,6.0,6.0,4.0,5.0,1.0,,3.6,3.333333,3.666667,3.0,5.666667,5.0,4.333333,4.6
37545,641,2020-04-05 22:40:30,EN,33,Female,PhD/Doctorate,College degree,Full time employed,United States,yes,,Married/cohabiting,2.0,Yes,Isolated,2.0,2.0,Program A,,No,4.0,4.0,5.0,3.0,2.0,4.0,2.0,2.0,4.0,2.0,3.0,2.0,4.0,3.0,8.0,1.0,2.0,2.0,7.0,9.0,0.0,6.0,6.0,6.0,6.0,6.0,0.0,4.0,6.0,6.0,4.0,2.0,4.0,4.0,5.0,2.0,6.0,6.0,2.0,5.0,5.0,5.0,2.0,4.0,5.0,5.0,1.0,6.0,99.0,6.0,6.0,5.0,6.0,5.0,99.0,3.0,6.0,6.0,5.0,6.0,6.0,6.0,5.0,5.0,1.0,99.0,6.0,6.0,2.0,1.0,6.0,5.0,,6.0,6.0,6.0,6.0,6.0,6.0,6.0,6.0,5.0,6.0,3.0,6.0,6.0,3.0,5.0,3.0,2.0,2.0,5.0,5.0,3.0,3.0,3.0,5.0,3.0,3.0,,1.0,6.0,6.0,5.0,6.0,1.0,,3.8,3.0,4.666667,5.666667,5.0,4.666667,5.666667,5.9
37580,924,2020-04-05 22:36:38,EN,53,Female,"College degree, bachelor, master",College degree,Full time employed,United States,no,Texas,Divorced/widowed,3.0,Yes,Isolated,3.0,0.0,,Program C,Not sure,2.0,3.0,4.0,4.0,3.0,3.0,3.0,3.0,3.0,3.0,1.0,2.0,2.0,6.0,8.0,2.0,5.0,9.0,7.0,8.0,3.0,5.0,5.0,5.0,5.0,5.0,1.0,5.0,5.0,5.0,2.0,3.0,2.0,4.0,2.0,4.0,3.0,3.0,5.0,4.0,6.0,4.0,4.0,5.0,4.0,3.0,1.0,5.0,2.0,4.0,5.0,2.0,5.0,3.0,1.0,5.0,2.0,5.0,3.0,5.0,5.0,6.0,4.0,2.0,1.0,1.0,4.0,5.0,4.0,2.0,3.0,6.0,,5.0,5.0,5.0,5.0,6.0,5.0,6.0,6.0,5.0,5.0,2.0,5.0,5.0,2.0,4.0,2.0,1.0,1.0,4.0,4.0,3.0,2.0,4.0,4.0,1.0,3.0,,2.0,6.0,4.0,3.0,3.0,3.0,"I am probably.more concerned about the long term food supply.  Frankly I kind of think the Earth is sending a not so subtle message.  Unfortunately, the orange shit gibbon that is our country's president is not only too ignorant to listen to it, he is too witless to listen to science as well.",2.9,1.666667,3.0,2.666667,4.666667,4.0,4.666667,5.3
37745,57847,2020-04-06 13:28:14,SAR,33,Male,PhD/Doctorate,PhD/Doctorate,Student,United States,no,Texas,Single,0.0,Yes,Isolated,0.0,0.0,Program A,,No,1.0,1.0,3.0,4.0,1.0,4.0,2.0,3.0,2.0,3.0,4.0,1.0,3.0,6.0,9.0,5.0,6.0,5.0,7.0,8.0,7.0,2.0,6.0,6.0,6.0,6.0,4.0,6.0,6.0,6.0,1.0,5.0,4.0,4.0,2.0,5.0,5.0,4.0,4.0,5.0,5.0,5.0,2.0,4.0,5.0,6.0,4.0,2.0,4.0,6.0,99.0,4.0,3.0,5.0,99.0,99.0,99.0,6.0,4.0,6.0,6.0,6.0,2.0,4.0,2.0,4.0,5.0,5.0,1.0,4.0,4.0,99.0,"Vivir en el exterior y no poder volver a Argentina, no poder volver a cuidar a mi padre si se enferma.",6.0,6.0,6.0,6.0,6.0,6.0,6.0,6.0,6.0,6.0,5.0,1.0,6.0,2.0,6.0,6.0,2.0,2.0,3.0,4.0,6.0,6.0,2.0,1.0,1.0,6.0,,6.0,6.0,6.0,6.0,6.0,2.0,,2.8,2.666667,2.666667,4.0,5.0,4.666667,3.666667,6.0
37751,509,2020-04-06 21:44:37,EN,19,Male,"Some College, short continuing education or equivalent",Some College or equivalent,Student,United States,no,Washington State,Single,0.0,Yes,Isolated,2.0,0.0,,Program D,No,4.0,4.0,4.0,4.0,3.0,3.0,3.0,3.0,5.0,2.0,4.0,3.0,5.0,7.0,9.0,5.0,8.0,6.0,6.0,8.0,5.0,4.0,6.0,5.0,5.0,5.0,5.0,,,,,,,,,,,,,,,,,,,,,,,,,,,,,,,,,,,,,,,,,,,,,,,,,,,,,,,,,,,,,,,,,,,,,,,,,,,,,,,,,3.3,4.0,,,,,,
37785,1570,2020-04-05 21:35:19,SME,51,Female,"Some College, short continuing education or equivalent",Up to 6 years of school,Self-employed,United States,yes,New york,Single,1.0,Not sure,Isolated,1.0,1.0,Program A,,No,3.0,2.0,3.0,3.0,3.0,3.0,2.0,4.0,1.0,2.0,1.0,1.0,2.0,8.0,8.0,8.0,9.0,8.0,5.0,5.0,9.0,5.0,5.0,5.0,5.0,5.0,4.0,5.0,5.0,1.0,1.0,2.0,5.0,5.0,5.0,5.0,4.0,1.0,5.0,6.0,6.0,5.0,5.0,1.0,5.0,5.0,1.0,5.0,1.0,1.0,2.0,6.0,2.0,99.0,99.0,99.0,99.0,1.0,5.0,6.0,99.0,6.0,5.0,5.0,3.0,99.0,99.0,99.0,1.0,5.0,5.0,99.0,,6.0,6.0,6.0,6.0,6.0,4.0,6.0,6.0,6.0,6.0,6.0,4.0,6.0,3.0,6.0,6.0,3.0,3.0,4.0,6.0,6.0,6.0,4.0,5.0,3.0,6.0,,5.0,2.0,5.0,2.0,5.0,6.0,,2.6,1.333333,4.0,2.333333,5.666667,2.666667,5.333333,5.8
37821,1317,2020-04-05 21:20:14,EN,50,Female,PhD/Doctorate,,Self-employed,United States,no,New York,Married/cohabiting,0.0,Yes,Isolated,1.0,0.0,Program A,,No,1.0,4.0,3.0,5.0,4.0,2.0,5.0,5.0,1.0,2.0,1.0,4.0,4.0,8.0,10.0,5.0,10.0,10.0,10.0,10.0,0.0,5.0,6.0,6.0,6.0,6.0,2.0,6.0,6.0,6.0,1.0,5.0,4.0,4.0,2.0,5.0,5.0,5.0,2.0,4.0,5.0,3.0,1.0,5.0,5.0,6.0,1.0,6.0,6.0,4.0,99.0,5.0,2.0,6.0,1.0,2.0,99.0,6.0,5.0,5.0,6.0,5.0,2.0,1.0,1.0,4.0,5.0,4.0,1.0,1.0,6.0,6.0,,6.0,6.0,4.0,6.0,6.0,6.0,6.0,6.0,6.0,6.0,4.0,6.0,6.0,3.0,5.0,5.0,1.0,1.0,5.0,5.0,5.0,5.0,5.0,6.0,4.0,4.0,,4.0,5.0,4.0,4.0,4.0,2.0,,1.8,3.0,2.666667,5.0,4.0,5.333333,6.0,5.8
37823,240,2020-04-06 21:00:45,EN,19,Female,"Some College, short continuing education or equivalent",College degree,Student,United States,no,South Carolina,Single,0.0,Not sure,Isolated,4.0,0.0,Program A,,No,5.0,5.0,5.0,1.0,2.0,5.0,4.0,2.0,3.0,5.0,5.0,5.0,5.0,,,,,,,,,,,,,,,,,,,,,,,,,,,,,,,,,,,,,,,,,,,,,,,,,,,,,,,,,,,,,,,,,,,,,,,,,,,,,,,,,,,,,,,,,,,,,,,4.3,5.0,,,,,,
37913,946,2020-04-05 20:41:16,EN,49,Female,"Some College, short continuing education or equivalent",College degree,Full time employed,United States,no,CA,Married/cohabiting,1.0,Yes,Isolated,2.0,0.0,Program A,,No,2.0,3.0,2.0,4.0,2.0,2.0,3.0,2.0,4.0,3.0,2.0,3.0,4.0,6.0,8.0,1.0,4.0,5.0,1.0,2.0,,3.0,4.0,5.0,6.0,6.0,1.0,4.0,3.0,3.0,2.0,3.0,1.0,3.0,2.0,3.0,5.0,5.0,4.0,3.0,6.0,3.0,3.0,6.0,5.0,2.0,5.0,3.0,3.0,3.0,1.0,99.0,2.0,5.0,1.0,3.0,99.0,6.0,5.0,5.0,5.0,5.0,1.0,3.0,4.0,2.0,5.0,3.0,3.0,1.0,3.0,5.0,,6.0,6.0,6.0,6.0,6.0,6.0,6.0,6.0,6.0,6.0,1.0,5.0,3.0,4.0,4.0,3.0,,4.0,5.0,3.0,4.0,1.0,4.0,4.0,1.0,3.0,,2.0,5.0,5.0,4.0,5.0,2.0,,2.9,3.0,3.0,4.333333,4.0,5.0,2.333333,6.0
37924,1927,2020-04-06 20:52:23,EN,72,Female,"Some College, short continuing education or equivalent",Some College or equivalent,Retired,United States,no,Nevada,Married/cohabiting,0.0,Yes,Isolated,1.0,0.0,,Program D,No,3.0,3.0,4.0,4.0,3.0,2.0,5.0,5.0,3.0,2.0,2.0,2.0,5.0,9.0,9.0,1.0,5.0,3.0,0.0,5.0,1.0,5.0,4.0,3.0,2.0,4.0,0.0,5.0,5.0,6.0,2.0,1.0,3.0,2.0,2.0,6.0,3.0,5.0,5.0,5.0,5.0,4.0,3.0,5.0,6.0,6.0,1.0,5.0,99.0,99.0,99.0,99.0,3.0,4.0,99.0,2.0,99.0,2.0,5.0,4.0,5.0,6.0,99.0,3.0,99.0,99.0,4.0,99.0,4.0,2.0,3.0,99.0,,5.0,3.0,,5.0,5.0,3.0,4.0,6.0,5.0,5.0,2.0,2.0,6.0,4.0,6.0,2.0,5.0,5.0,5.0,4.0,5.0,2.0,2.0,3.0,1.0,1.0,,1.0,2.0,2.0,2.0,2.0,5.0,"Complete lockdown seriously limits interaction with anyone outside of our household.  Other than grocery store, pharmacy and services/needs of our dogs, we are limited to phone or mobile video facilities to stay in touch.",2.4,3.0,1.666667,3.333333,4.666667,5.0,5.666667,4.555556
37931,1235,2020-04-05 20:37:01,EN,44,Female,"Some College, short continuing education or equivalent",Up to 12 years of school,Self-employed,United States,no,Oregon,Married/cohabiting,1.0,Yes,Isolated,2.0,0.0,,Program D,Yes,3.0,3.0,3.0,4.0,3.0,1.0,4.0,3.0,1.0,2.0,3.0,1.0,4.0,6.0,9.0,8.0,10.0,9.0,9.0,10.0,10.0,5.0,5.0,5.0,5.0,5.0,5.0,6.0,6.0,5.0,2.0,4.0,4.0,5.0,4.0,5.0,6.0,4.0,5.0,5.0,4.0,4.0,4.0,5.0,5.0,6.0,2.0,5.0,6.0,2.0,5.0,5.0,5.0,5.0,4.0,2.0,1.0,5.0,2.0,6.0,5.0,6.0,4.0,4.0,2.0,6.0,6.0,3.0,5.0,2.0,6.0,1.0,,6.0,6.0,6.0,6.0,6.0,6.0,6.0,6.0,5.0,6.0,5.0,4.0,6.0,2.0,2.0,5.0,1.0,1.0,5.0,6.0,6.0,5.0,3.0,6.0,6.0,5.0,,5.0,5.0,2.0,5.0,5.0,4.0,,2.3,2.666667,3.666667,4.0,4.333333,4.333333,5.333333,5.9
37937,384,2020-04-06 20:19:27,EN,39,Female,"College degree, bachelor, master",College degree,Full time employed,United States,no,Oregon,Married/cohabiting,2.0,No,Life carries on with minor changes,,,Program B,,,,,,,,,,,,,,,,,,,,,,,,,,,,,,,,,,,,,,,,,,,,,,,,,,,,,,,,,,,,,,,,,,,,,,,,,,,,,,,,,,,,,,,,,,,,,,,,,,,,,,,,,,,,,,,,,,,,,
37938,2377,2020-04-05 20:51:43,EN,41,Male,"College degree, bachelor, master",Up to 12 years of school,Full time employed,United States,no,Ohio,Married/cohabiting,0.0,Yes,Isolated,1.0,0.0,Program A,,No,2.0,2.0,3.0,3.0,3.0,2.0,3.0,3.0,2.0,2.0,2.0,2.0,3.0,4.0,7.0,2.0,3.0,6.0,3.0,6.0,2.0,4.0,6.0,5.0,5.0,5.0,1.0,2.0,4.0,4.0,3.0,2.0,4.0,3.0,4.0,4.0,5.0,4.0,3.0,5.0,4.0,5.0,4.0,2.0,3.0,4.0,4.0,5.0,2.0,4.0,99.0,5.0,4.0,5.0,1.0,4.0,99.0,5.0,3.0,5.0,4.0,4.0,4.0,5.0,2.0,3.0,4.0,4.0,4.0,5.0,3.0,4.0,,5.0,4.0,4.0,5.0,5.0,4.0,5.0,5.0,5.0,5.0,2.0,2.0,4.0,1.0,4.0,2.0,5.0,5.0,5.0,4.0,4.0,3.0,4.0,5.0,1.0,5.0,,1.0,5.0,2.0,2.0,3.0,2.0,,2.5,2.333333,3.333333,4.333333,4.666667,2.666667,4.0,4.7
37940,1724,2020-04-05 20:39:20,PT-BR,57,Female,"College degree, bachelor, master",College degree,Not employed,United States,yes,Maryland,Married/cohabiting,0.0,Yes,Life carries on with minor changes,1.0,0.0,Program A,,No,4.0,3.0,3.0,2.0,2.0,3.0,3.0,3.0,4.0,2.0,3.0,1.0,3.0,7.0,9.0,5.0,5.0,5.0,5.0,10.0,7.0,6.0,6.0,5.0,6.0,5.0,7.0,5.0,4.0,4.0,4.0,3.0,4.0,5.0,4.0,2.0,4.0,2.0,5.0,2.0,3.0,2.0,5.0,5.0,5.0,3.0,4.0,3.0,5.0,99.0,5.0,99.0,,2.0,2.0,2.0,99.0,6.0,5.0,6.0,6.0,6.0,99.0,3.0,3.0,4.0,5.0,,4.0,4.0,6.0,6.0,Desconhecimento dos cientistas sobre o virus,5.0,5.0,5.0,5.0,5.0,3.0,3.0,5.0,3.0,5.0,5.0,5.0,5.0,2.0,2.0,4.0,5.0,2.0,5.0,4.0,4.0,5.0,3.0,5.0,3.0,4.0,,5.0,5.0,5.0,2.0,1.0,2.0,Sintomas medo pelo desconhecido e fora do meu controle.,3.3,2.333333,4.666667,2.666667,2.333333,4.0,3.0,4.4
37964,789,2020-04-06 20:14:28,SQI,34,Male,"College degree, bachelor, master",Up to 12 years of school,Self-employed,United States,yes,TNS,Married/cohabiting,0.0,No,Life carries on with minor changes,1.0,0.0,,Program D,Not sure,3.0,3.0,3.0,5.0,4.0,3.0,4.0,3.0,3.0,2.0,2.0,1.0,2.0,0.0,10.0,,4.0,,,,4.0,1.0,6.0,6.0,6.0,6.0,5.0,4.0,5.0,4.0,5.0,5.0,4.0,2.0,4.0,5.0,4.0,4.0,1.0,5.0,5.0,4.0,2.0,4.0,4.0,5.0,2.0,4.0,,,,,,,,,,,,,,,,,,,,,,,,,,,,,,,,,,,,,,,,,,,,,,,,,,,,,,,,,,,,2.5,1.666667,2.666667,4.666667,4.666667,4.333333,4.666667,
38014,933,2020-04-05 19:51:29,EN,51,Female,"College degree, bachelor, master",Up to 12 years of school,Part time employed,United States,no,Virginia,Divorced/widowed,2.0,Not sure,Isolated,1.0,0.0,,Program C,No,4.0,4.0,5.0,3.0,2.0,3.0,3.0,3.0,4.0,3.0,2.0,2.0,3.0,7.0,8.0,6.0,7.0,10.0,5.0,7.0,6.0,5.0,5.0,5.0,6.0,6.0,3.0,5.0,6.0,6.0,3.0,3.0,5.0,5.0,6.0,4.0,5.0,6.0,3.0,5.0,5.0,5.0,3.0,6.0,5.0,3.0,2.0,5.0,2.0,5.0,99.0,99.0,6.0,5.0,2.0,2.0,99.0,6.0,5.0,6.0,6.0,5.0,3.0,2.0,3.0,4.0,4.0,5.0,3.0,3.0,6.0,2.0,,5.0,5.0,5.0,5.0,5.0,5.0,5.0,5.0,5.0,5.0,4.0,5.0,5.0,5.0,5.0,3.0,2.0,2.0,6.0,4.0,2.0,4.0,3.0,3.0,5.0,5.0,,3.0,5.0,4.0,4.0,2.0,4.0,This has been very hard to navigate as someone who already struggled with anxiety before coronovirus.,3.6,2.333333,4.666667,5.0,5.0,5.0,4.333333,5.0
38025,970,2020-04-05 19:46:20,EN,36,Female,"College degree, bachelor, master",College degree,Full time employed,United States,no,NY,Married/cohabiting,1.0,Yes,Isolated,1.0,1.0,,Program C,No,3.0,2.0,3.0,5.0,4.0,2.0,5.0,4.0,2.0,2.0,3.0,2.0,3.0,5.0,9.0,5.0,8.0,10.0,10.0,10.0,1.0,5.0,6.0,6.0,6.0,6.0,0.0,6.0,6.0,6.0,2.0,4.0,6.0,5.0,3.0,6.0,4.0,3.0,5.0,4.0,6.0,5.0,1.0,6.0,6.0,6.0,1.0,6.0,2.0,5.0,4.0,5.0,2.0,5.0,1.0,4.0,5.0,5.0,1.0,5.0,6.0,5.0,2.0,4.0,2.0,5.0,4.0,2.0,1.0,1.0,5.0,4.0,,6.0,6.0,6.0,5.0,6.0,6.0,6.0,6.0,6.0,6.0,4.0,6.0,6.0,5.0,6.0,4.0,1.0,1.0,4.0,6.0,4.0,6.0,5.0,5.0,1.0,5.0,,2.0,5.0,5.0,4.0,6.0,4.0,,2.0,2.666667,3.0,3.0,5.0,6.0,6.0,5.9
38057,315,2020-04-06 19:25:47,PL,37,Female,PhD/Doctorate,College degree,Full time employed,United States,yes,,Married/cohabiting,1.0,Not sure,Isolated,1.0,1.0,Program A,,Not sure,5.0,3.0,5.0,2.0,4.0,2.0,4.0,1.0,5.0,3.0,1.0,1.0,1.0,4.0,5.0,3.0,4.0,4.0,5.0,9.0,4.0,6.0,6.0,5.0,5.0,5.0,1.0,,,,,,,,,,,,,,,,,,,,,,,,,,,,,,,,,,,,,,,,,,,,,,,,,,,,,,,,,,,,,,,,,,,,,,,,,,,,,,,,,3.6,1.0,,,,,,
38061,324,2020-04-06 19:24:20,EN,56,Female,PhD/Doctorate,Up to 12 years of school,Full time employed,United States,no,Georgia,Other or would rather not say,4.0,No,Isolated,2.0,1.0,,,,,,,,,,,,,,,,,,,,,,,,,,,,,,,,,,,,,,,,,,,,,,,,,,,,,,,,,,,,,,,,,,,,,,,,,,,,,,,,,,,,,,,,,,,,,,,,,,,,,,,,,,,,,,,,,,,,,,
38089,1060,2020-04-05 19:27:38,EN,30,Female,"College degree, bachelor, master",College degree,Full time employed,United States,no,Michigan,Married/cohabiting,2.0,Yes,Isolated,1.0,2.0,,Program D,No,4.0,3.0,4.0,3.0,3.0,3.0,3.0,3.0,3.0,2.0,1.0,2.0,3.0,7.0,9.0,2.0,4.0,4.0,7.0,6.0,2.0,5.0,5.0,5.0,6.0,4.0,3.0,4.0,5.0,6.0,2.0,3.0,3.0,4.0,2.0,5.0,6.0,5.0,2.0,3.0,5.0,4.0,2.0,4.0,5.0,4.0,2.0,5.0,6.0,5.0,4.0,5.0,6.0,6.0,99.0,3.0,5.0,4.0,4.0,4.0,5.0,5.0,5.0,5.0,5.0,3.0,4.0,3.0,3.0,2.0,6.0,99.0,,6.0,4.0,5.0,5.0,5.0,4.0,6.0,6.0,5.0,6.0,3.0,5.0,5.0,3.0,4.0,4.0,1.0,1.0,6.0,3.0,2.0,4.0,3.0,4.0,2.0,3.0,,3.0,4.0,2.0,5.0,4.0,3.0,I am a healthcare worker. It happens that I went on parental leave the week before a lot started happening with covid in Michigan. I am absolutely terrified of having to return to work when my parental leave is over.,3.1,2.0,2.666667,5.333333,4.0,4.666667,4.666667,5.2
38103,1409,2020-04-05 19:29:50,EN,51,Male,"Some College, short continuing education or equivalent",College degree,Full time employed,United States,yes,MA,Single,0.0,Yes,Isolated,1.0,0.0,Program B,,Yes,3.0,4.0,3.0,4.0,3.0,2.0,3.0,3.0,4.0,3.0,3.0,2.0,2.0,7.0,10.0,1.0,8.0,8.0,7.0,8.0,0.0,5.0,5.0,5.0,5.0,5.0,0.0,6.0,5.0,5.0,2.0,4.0,4.0,5.0,4.0,3.0,4.0,3.0,5.0,5.0,6.0,6.0,4.0,5.0,6.0,5.0,5.0,6.0,6.0,99.0,99.0,2.0,4.0,5.0,2.0,2.0,99.0,5.0,4.0,5.0,5.0,6.0,99.0,2.0,2.0,4.0,4.0,5.0,2.0,3.0,6.0,5.0,,6.0,5.0,5.0,4.0,4.0,6.0,5.0,5.0,5.0,5.0,3.0,4.0,4.0,4.0,5.0,5.0,4.0,4.0,5.0,4.0,4.0,2.0,3.0,5.0,4.0,5.0,,4.0,5.0,5.0,5.0,5.0,2.0,There's currently a cabal of incompetent criminals running the country. It's stressful watching Tangerine Caligula fumble with the simplest of tasks while he kisses his own ass. I worry this shit show is going to cost us dearly. It's pathetic. ,3.0,2.333333,4.333333,3.0,5.666667,4.666667,4.333333,5.0
38112,1662,2020-04-05 19:30:23,EN,33,Female,PhD/Doctorate,Some College or equivalent,Full time employed,United States,no,Ny,Married/cohabiting,0.0,Yes,Isolated,1.0,0.0,,Program D,No,2.0,2.0,3.0,4.0,3.0,4.0,5.0,3.0,2.0,2.0,1.0,2.0,3.0,5.0,9.0,7.0,9.0,8.0,8.0,10.0,6.0,5.0,6.0,6.0,5.0,5.0,4.0,4.0,5.0,5.0,2.0,3.0,4.0,5.0,3.0,6.0,4.0,5.0,5.0,5.0,4.0,4.0,3.0,4.0,5.0,4.0,4.0,5.0,5.0,3.0,99.0,2.0,3.0,5.0,1.0,2.0,99.0,6.0,4.0,6.0,5.0,6.0,2.0,3.0,2.0,4.0,5.0,4.0,2.0,2.0,5.0,4.0,,6.0,6.0,5.0,6.0,6.0,6.0,6.0,6.0,5.0,6.0,5.0,4.0,5.0,4.0,5.0,4.0,1.0,1.0,5.0,4.0,5.0,6.0,4.0,5.0,1.0,4.0,,5.0,6.0,5.0,4.0,5.0,4.0,,2.4,2.0,3.0,3.666667,4.333333,4.333333,4.0,5.8
38173,297,2020-04-06 18:42:50,ZH-T,31,Other/would rather not say,PhD/Doctorate,Some College or equivalent,Student,United States,yes,NY,Other or would rather not say,0.0,Yes,Isolated,0.0,0.0,,Program D,,1.0,2.0,2.0,4.0,1.0,2.0,4.0,1.0,4.0,1.0,1.0,1.0,3.0,,,,,,,,,1.0,6.0,6.0,4.0,6.0,0.0,3.0,4.0,5.0,1.0,1.0,6.0,,,,,,,,,,,,,,,,,,,,,,,,,,,,,,,,,,,,,,,,,,,,,,,,,,,,,,,,,,,,,,,,,,,,,,,,,,,2.6,1.666667,,,,,,
38180,660,2020-04-05 18:45:57,EN,33,Female,"College degree, bachelor, master",College degree,Self-employed,United States,no,Virginia,Married/cohabiting,2.0,Yes,Isolated,1.0,2.0,,,,3.0,2.0,3.0,4.0,4.0,2.0,4.0,3.0,3.0,2.0,2.0,2.0,3.0,7.0,10.0,7.0,8.0,8.0,9.0,9.0,4.0,5.0,5.0,5.0,6.0,6.0,0.0,5.0,6.0,6.0,1.0,4.0,4.0,4.0,4.0,6.0,2.0,2.0,6.0,5.0,5.0,4.0,1.0,6.0,6.0,6.0,1.0,6.0,2.0,4.0,6.0,3.0,4.0,2.0,5.0,2.0,6.0,5.0,4.0,4.0,5.0,4.0,2.0,3.0,3.0,4.0,3.0,2.0,2.0,2.0,4.0,1.0,,5.0,6.0,6.0,6.0,6.0,6.0,6.0,6.0,4.0,6.0,4.0,6.0,6.0,3.0,6.0,3.0,1.0,1.0,5.0,6.0,3.0,4.0,5.0,4.0,6.0,6.0,,6.0,6.0,4.0,4.0,4.0,3.0,,2.4,2.333333,3.0,1.666667,4.666667,6.0,6.0,5.7
38197,681,2020-04-05 18:42:17,EN,28,Female,"College degree, bachelor, master",College degree,Full time employed,United States,no,Virginia,Married/cohabiting,0.0,Not sure,Isolated,1.0,0.0,,Program D,No,4.0,3.0,4.0,3.0,3.0,3.0,3.0,3.0,4.0,3.0,4.0,2.0,5.0,7.0,8.0,5.0,5.0,5.0,6.0,8.0,5.0,5.0,5.0,5.0,6.0,6.0,2.0,5.0,5.0,5.0,4.0,1.0,3.0,4.0,5.0,4.0,5.0,3.0,5.0,4.0,5.0,4.0,4.0,4.0,5.0,4.0,4.0,4.0,99.0,5.0,99.0,5.0,5.0,5.0,99.0,4.0,99.0,5.0,5.0,6.0,4.0,5.0,4.0,4.0,4.0,5.0,5.0,4.0,5.0,4.0,5.0,5.0,,5.0,5.0,5.0,5.0,5.0,5.0,5.0,5.0,4.0,5.0,4.0,6.0,5.0,5.0,4.0,3.0,4.0,4.0,5.0,4.0,4.0,4.0,4.0,4.0,2.0,4.0,,4.0,4.0,2.0,4.0,4.0,2.0,,3.3,3.666667,4.0,3.333333,4.333333,4.0,3.666667,4.9
38204,1684,2020-04-05 18:57:14,EN,54,Female,"College degree, bachelor, master",Some College or equivalent,Part time employed,United States,no,VA,Married/cohabiting,0.0,Yes,Isolated,2.0,0.0,Program B,,No,4.0,4.0,5.0,4.0,3.0,3.0,3.0,3.0,3.0,3.0,2.0,3.0,3.0,8.0,9.0,6.0,9.0,10.0,8.0,10.0,3.0,5.0,6.0,6.0,5.0,5.0,2.0,6.0,6.0,6.0,1.0,4.0,4.0,5.0,4.0,5.0,6.0,6.0,2.0,5.0,6.0,4.0,1.0,5.0,6.0,6.0,1.0,6.0,1.0,99.0,99.0,99.0,4.0,3.0,1.0,1.0,99.0,5.0,2.0,6.0,3.0,6.0,99.0,2.0,1.0,2.0,2.0,3.0,1.0,1.0,3.0,1.0,The actions of others not following guidelines and executive orders. The safety of my 2 year old grandson who's mother is a nurse and father is an essential employee. And concern for my brother who is a nurse. I feel hopeless and helpless to keep them safe.,6.0,6.0,6.0,5.0,6.0,5.0,6.0,6.0,6.0,6.0,4.0,1.0,5.0,1.0,3.0,4.0,1.0,1.0,4.0,6.0,2.0,4.0,,4.0,1.0,2.0,,6.0,6.0,5.0,3.0,3.0,5.0,My husband is working from home. My mom lives with us and I worry about bringing Covid-19 home to her from the grocery store.,3.3,2.666667,3.666667,5.666667,5.0,5.666667,6.0,5.8
38209,600,2020-04-05 18:36:39,EN,28,Female,"College degree, bachelor, master",Some College or equivalent,Full time employed,United States,no,Ohio,Single,0.0,Yes,Isolated,0.0,0.0,Program A,,No,4.0,5.0,5.0,4.0,1.0,5.0,3.0,2.0,4.0,3.0,3.0,4.0,5.0,5.0,8.0,4.0,2.0,7.0,7.0,7.0,0.0,6.0,6.0,6.0,6.0,6.0,0.0,5.0,4.0,4.0,3.0,2.0,4.0,4.0,4.0,5.0,5.0,4.0,4.0,4.0,6.0,2.0,1.0,5.0,5.0,5.0,1.0,5.0,6.0,5.0,99.0,99.0,4.0,6.0,1.0,5.0,99.0,4.0,6.0,6.0,6.0,6.0,99.0,5.0,4.0,6.0,6.0,6.0,4.0,5.0,6.0,99.0,,6.0,6.0,6.0,6.0,6.0,6.0,5.0,6.0,5.0,6.0,4.0,2.0,6.0,5.0,4.0,6.0,5.0,5.0,5.0,3.0,4.0,3.0,5.0,4.0,2.0,5.0,,3.0,5.0,4.0,5.0,6.0,1.0,,4.0,4.0,3.333333,4.0,4.0,5.333333,5.333333,5.8
38216,752,2020-04-05 18:38:02,EN,38,Female,"College degree, bachelor, master",Some College or equivalent,Full time employed,United States,no,Va,Married/cohabiting,1.0,Yes,Life carries on with minor changes,,,Program A,,Not sure,4.0,4.0,4.0,2.0,2.0,4.0,2.0,2.0,4.0,4.0,4.0,3.0,4.0,6.0,8.0,3.0,6.0,6.0,7.0,7.0,3.0,2.0,2.0,2.0,5.0,5.0,3.0,4.0,4.0,3.0,3.0,4.0,1.0,4.0,2.0,3.0,2.0,2.0,4.0,2.0,5.0,2.0,3.0,4.0,4.0,2.0,4.0,5.0,2.0,5.0,2.0,2.0,3.0,4.0,5.0,4.0,4.0,6.0,2.0,2.0,3.0,2.0,2.0,5.0,3.0,4.0,2.0,2.0,3.0,2.0,5.0,99.0,,4.0,4.0,3.0,4.0,3.0,4.0,4.0,3.0,4.0,5.0,3.0,5.0,2.0,5.0,2.0,4.0,2.0,2.0,5.0,3.0,2.0,2.0,3.0,5.0,5.0,2.0,,3.0,4.0,3.0,4.0,2.0,2.0,,4.0,3.666667,3.333333,2.333333,3.0,4.0,3.333333,3.8
38222,1773,2020-04-05 18:52:14,EN,66,Female,"College degree, bachelor, master",Up to 12 years of school,Part time employed,United States,no,Virginia,Married/cohabiting,0.0,Yes,Isolated,1.0,0.0,Program A,,No,4.0,4.0,5.0,3.0,3.0,4.0,3.0,3.0,3.0,4.0,2.0,2.0,3.0,3.0,6.0,1.0,6.0,5.0,5.0,5.0,2.0,5.0,6.0,5.0,5.0,5.0,2.0,5.0,5.0,5.0,2.0,2.0,3.0,5.0,4.0,4.0,5.0,3.0,5.0,5.0,4.0,6.0,4.0,5.0,5.0,4.0,3.0,4.0,3.0,5.0,99.0,99.0,5.0,4.0,2.0,3.0,99.0,5.0,5.0,5.0,6.0,6.0,3.0,3.0,3.0,2.0,4.0,5.0,5.0,5.0,5.0,5.0,,6.0,5.0,5.0,5.0,5.0,5.0,5.0,6.0,5.0,6.0,3.0,5.0,6.0,4.0,4.0,4.0,2.0,2.0,4.0,5.0,4.0,3.0,5.0,4.0,2.0,3.0,,3.0,6.0,4.0,5.0,5.0,5.0,,3.6,2.333333,4.0,3.333333,5.0,4.333333,4.0,5.3
38225,223,2020-04-06 18:26:04,EN,59,Female,"College degree, bachelor, master",College degree,Self-employed,United States,no,Michigan,Divorced/widowed,0.0,Yes,Life carries on with minor changes,1.0,0.0,,,,,,,,,,,,,,,,,,,,,,,,,,,,,,,,,,,,,,,,,,,,,,,,,,,,,,,,,,,,,,,,,,,,,,,,,,,,,,,,,,,,,,,,,,,,,,,,,,,,,,,,,,,,,,,,,,,,,,
38254,568,2020-04-06 18:24:38,EN,28,Other/would rather not say,"Some College, short continuing education or equivalent",,Full time employed,United States,no,,Single,2.0,No,Life carries on with minor changes,2.0,0.0,,Program D,Not sure,3.0,4.0,3.0,4.0,4.0,2.0,3.0,4.0,3.0,2.0,1.0,3.0,1.0,4.0,8.0,,,0.0,,5.0,,4.0,5.0,4.0,6.0,6.0,0.0,5.0,5.0,5.0,2.0,3.0,5.0,4.0,5.0,3.0,3.0,2.0,6.0,6.0,6.0,6.0,3.0,3.0,5.0,5.0,2.0,5.0,3.0,1.0,99.0,99.0,6.0,5.0,3.0,6.0,99.0,6.0,99.0,4.0,4.0,5.0,1.0,99.0,5.0,1.0,4.0,4.0,3.0,2.0,5.0,1.0,,,,,,,,,,,,,,,,,,,,,,,,,,,,,,,,,,,,2.6,1.666667,4.333333,2.0,6.0,4.0,5.0,
38269,1007,2020-04-06 18:28:11,EN,27,Female,"College degree, bachelor, master",College degree,Full time employed,United States,no,Pa,Married/cohabiting,0.0,Yes,Isolated,1.0,0.0,Program A,,No,3.0,4.0,4.0,3.0,3.0,3.0,3.0,3.0,3.0,3.0,4.0,4.0,4.0,3.0,9.0,6.0,8.0,8.0,7.0,8.0,6.0,5.0,5.0,4.0,5.0,5.0,3.0,4.0,5.0,5.0,3.0,2.0,3.0,5.0,5.0,2.0,3.0,2.0,4.0,2.0,4.0,2.0,4.0,3.0,4.0,4.0,4.0,4.0,2.0,5.0,99.0,4.0,4.0,2.0,99.0,2.0,99.0,4.0,2.0,5.0,5.0,5.0,3.0,2.0,4.0,3.0,5.0,5.0,3.0,4.0,5.0,99.0,,4.0,4.0,4.0,4.0,4.0,4.0,4.0,5.0,3.0,5.0,3.0,2.0,2.0,2.0,2.0,4.0,1.0,2.0,5.0,2.0,2.0,4.0,2.0,3.0,1.0,4.0,,4.0,4.0,2.0,3.0,5.0,2.0,,3.2,4.0,5.0,2.666667,2.666667,3.333333,3.666667,4.1
38280,428,2020-04-05 18:15:52,EN,28,Other/would rather not say,"College degree, bachelor, master",College degree,Full time employed,United States,yes,,Other or would rather not say,,Yes,Life carries on with minor changes,1.0,0.0,,Program D,Yes,4.0,4.0,5.0,4.0,3.0,4.0,3.0,1.0,4.0,4.0,5.0,5.0,5.0,3.0,7.0,1.0,,,,2.0,,2.0,6.0,5.0,5.0,6.0,0.0,5.0,4.0,5.0,2.0,1.0,4.0,5.0,5.0,3.0,5.0,5.0,4.0,5.0,6.0,5.0,4.0,5.0,5.0,2.0,6.0,4.0,99.0,6.0,99.0,99.0,5.0,5.0,99.0,6.0,99.0,4.0,4.0,5.0,6.0,6.0,5.0,5.0,5.0,5.0,4.0,5.0,6.0,6.0,6.0,6.0,,6.0,6.0,5.0,6.0,6.0,6.0,5.0,6.0,6.0,6.0,2.0,5.0,5.0,5.0,3.0,5.0,5.0,5.0,5.0,5.0,3.0,2.0,3.0,4.0,1.0,2.0,,1.0,1.0,1.0,4.0,1.0,1.0,,3.8,5.0,4.666667,4.333333,5.333333,4.333333,2.333333,5.8
38288,1211,2020-04-05 18:25:04,SME,32,Female,"College degree, bachelor, master",Some College or equivalent,Full time employed,United States,yes,Texas,Married/cohabiting,2.0,Yes,Isolated,1.0,2.0,Program B,,No,5.0,3.0,4.0,3.0,3.0,1.0,2.0,5.0,4.0,3.0,3.0,1.0,4.0,4.0,7.0,9.0,10.0,8.0,8.0,8.0,10.0,5.0,3.0,2.0,2.0,2.0,2.0,6.0,6.0,6.0,1.0,2.0,5.0,5.0,5.0,5.0,5.0,5.0,4.0,5.0,5.0,5.0,5.0,5.0,5.0,5.0,4.0,5.0,6.0,4.0,6.0,5.0,6.0,5.0,99.0,5.0,99.0,5.0,2.0,5.0,6.0,5.0,5.0,5.0,99.0,5.0,2.0,5.0,2.0,5.0,6.0,6.0,,5.0,5.0,5.0,6.0,6.0,5.0,5.0,5.0,5.0,5.0,5.0,5.0,5.0,5.0,5.0,5.0,5.0,5.0,5.0,5.0,3.0,5.0,6.0,5.0,5.0,5.0,,5.0,5.0,5.0,5.0,5.0,6.0,,3.1,2.666667,4.0,4.333333,5.0,4.0,4.333333,5.2
38326,703,2020-04-05 18:05:26,EN,27,Female,"College degree, bachelor, master",College degree,Full time employed,United States,no,Ohio,Single,0.0,No,Life carries on with minor changes,0.0,0.0,Program A,,No,4.0,4.0,5.0,3.0,2.0,5.0,3.0,2.0,3.0,3.0,4.0,3.0,4.0,6.0,8.0,6.0,4.0,8.0,9.0,9.0,5.0,4.0,5.0,5.0,5.0,5.0,3.0,5.0,5.0,5.0,6.0,4.0,5.0,6.0,5.0,4.0,5.0,4.0,4.0,4.0,5.0,5.0,2.0,4.0,6.0,4.0,4.0,5.0,3.0,3.0,99.0,5.0,4.0,6.0,1.0,99.0,99.0,5.0,4.0,5.0,5.0,6.0,4.0,5.0,2.0,5.0,5.0,5.0,5.0,5.0,6.0,4.0,,6.0,6.0,6.0,6.0,6.0,6.0,6.0,6.0,5.0,6.0,4.0,5.0,5.0,4.0,5.0,3.0,5.0,5.0,5.0,5.0,3.0,4.0,5.0,5.0,1.0,5.0,,6.0,5.0,5.0,4.0,1.0,4.0,Insecurity over the wellbeing of sanitation  and grocery workers. Worry about people who have lost their jobs. Worry about the homeless and their access to resources. Worry about healthcare workers.,3.8,3.666667,4.666667,4.0,4.666667,5.0,4.0,5.9
38331,6365,2020-04-05 19:38:43,EN,29,Male,"College degree, bachelor, master",College degree,Full time employed,United States,no,Ohio,Single,,Yes,Isolated,0.0,0.0,,Program D,No,3.0,3.0,3.0,3.0,2.0,2.0,3.0,3.0,3.0,2.0,4.0,3.0,4.0,6.0,8.0,6.0,4.0,5.0,8.0,7.0,8.0,4.0,5.0,4.0,5.0,5.0,8.0,5.0,6.0,5.0,3.0,4.0,3.0,4.0,4.0,4.0,5.0,5.0,3.0,5.0,5.0,5.0,3.0,4.0,5.0,5.0,3.0,5.0,4.0,4.0,99.0,5.0,4.0,5.0,2.0,99.0,99.0,6.0,4.0,4.0,4.0,4.0,3.0,5.0,4.0,5.0,5.0,99.0,2.0,2.0,6.0,5.0,,5.0,4.0,4.0,5.0,5.0,5.0,5.0,5.0,5.0,5.0,4.0,5.0,4.0,4.0,4.0,5.0,3.0,4.0,4.0,3.0,3.0,4.0,3.0,4.0,2.0,4.0,,4.0,5.0,4.0,3.0,3.0,4.0,Being single is more negative right now than normal,2.9,3.666667,3.666667,4.666667,5.0,4.333333,4.666667,4.8
38340,1355,2020-04-05 18:13:30,EN,23,Female,"Some College, short continuing education or equivalent",Some College or equivalent,Part time employed,United States,no,Virginia,Single,0.0,Not sure,Life carries on with minor changes,2.0,0.0,Program B,,No,4.0,3.0,5.0,3.0,2.0,5.0,3.0,2.0,4.0,4.0,4.0,4.0,4.0,6.0,9.0,4.0,6.0,5.0,5.0,9.0,3.0,4.0,5.0,5.0,5.0,5.0,3.0,5.0,3.0,3.0,4.0,2.0,4.0,5.0,6.0,4.0,3.0,4.0,4.0,5.0,6.0,4.0,2.0,5.0,6.0,4.0,4.0,4.0,6.0,5.0,99.0,5.0,5.0,5.0,1.0,3.0,99.0,6.0,2.0,6.0,6.0,5.0,99.0,4.0,5.0,5.0,6.0,6.0,6.0,5.0,6.0,1.0,Regressing in mental health progress that Ive made through therapy over the past couple of years,4.0,4.0,4.0,4.0,5.0,5.0,4.0,5.0,4.0,4.0,4.0,4.0,5.0,4.0,5.0,2.0,4.0,4.0,5.0,4.0,2.0,2.0,4.0,4.0,1.0,5.0,Art!,5.0,2.0,4.0,5.0,4.0,3.0,Being considered an essential employee has greatly increased my stress level because I am constantly aware and concerned about my level of exposure to and spreading of the virus,3.9,4.0,4.666667,3.333333,5.0,5.333333,3.666667,4.3
38344,1680,2020-04-05 18:18:23,EN,41,Male,"College degree, bachelor, master",Some College or equivalent,Full time employed,United States,no,Oregon,Married/cohabiting,2.0,No,Life carries on with minor changes,1.0,2.0,Program B,,Not sure,3.0,3.0,5.0,3.0,3.0,3.0,4.0,3.0,4.0,4.0,4.0,4.0,3.0,6.0,8.0,3.0,7.0,3.0,6.0,7.0,3.0,4.0,4.0,4.0,5.0,5.0,3.0,5.0,4.0,4.0,3.0,3.0,2.0,5.0,5.0,4.0,2.0,4.0,3.0,5.0,6.0,5.0,1.0,5.0,6.0,5.0,2.0,5.0,5.0,6.0,6.0,5.0,5.0,5.0,3.0,5.0,4.0,5.0,5.0,6.0,5.0,6.0,5.0,4.0,5.0,5.0,6.0,5.0,5.0,5.0,6.0,5.0,Not being able to get a job if I get fired for infecting patients.,2.0,4.0,4.0,3.0,5.0,3.0,3.0,4.0,3.0,4.0,4.0,5.0,5.0,5.0,4.0,5.0,1.0,1.0,1.0,3.0,3.0,4.0,5.0,1.0,5.0,5.0,,5.0,5.0,4.0,5.0,5.0,2.0,"I feel like I don't have the tools or training at one of my jobs to avoid causing an outbreak. If I get the virus I will infect a lot of vulnerable people if I don't take thorough precautions and that scares me. If I make a mistake because I'm tired, I could do a lot of damage.",3.3,3.666667,4.333333,3.333333,5.333333,5.666667,5.0,3.5
38394,924,2020-04-05 17:51:54,SME,29,Female,"College degree, bachelor, master",Some College or equivalent,Full time employed,United States,yes,Texas,Married/cohabiting,1.0,No,Life carries on with minor changes,1.0,0.0,Program A,,No,2.0,3.0,3.0,4.0,4.0,2.0,5.0,3.0,3.0,1.0,2.0,1.0,2.0,6.0,7.0,8.0,9.0,7.0,5.0,7.0,6.0,2.0,6.0,4.0,6.0,5.0,3.0,6.0,6.0,6.0,1.0,4.0,5.0,3.0,3.0,5.0,3.0,1.0,5.0,4.0,5.0,4.0,3.0,4.0,5.0,5.0,1.0,6.0,1.0,1.0,99.0,2.0,2.0,2.0,1.0,2.0,99.0,4.0,4.0,5.0,4.0,6.0,1.0,1.0,1.0,2.0,5.0,5.0,3.0,4.0,1.0,5.0,,6.0,6.0,6.0,6.0,6.0,6.0,6.0,6.0,5.0,5.0,4.0,6.0,6.0,5.0,6.0,6.0,1.0,1.0,6.0,2.0,1.0,6.0,2.0,4.0,1.0,6.0,,6.0,6.0,6.0,5.0,6.0,2.0,,2.2,1.666667,2.666667,2.0,4.333333,4.333333,5.666667,5.8
38398,1044,2020-04-05 17:52:25,SME,31,Male,"College degree, bachelor, master",Up to 9 years of school,Not employed,United States,no,TX,Married/cohabiting,0.0,No,Isolated,2.0,0.0,,Program C,No,3.0,2.0,3.0,5.0,3.0,2.0,4.0,3.0,3.0,2.0,2.0,3.0,2.0,3.0,6.0,8.0,8.0,8.0,2.0,1.0,1.0,6.0,6.0,6.0,5.0,4.0,0.0,6.0,6.0,6.0,1.0,2.0,4.0,5.0,2.0,6.0,5.0,5.0,4.0,5.0,1.0,4.0,2.0,2.0,5.0,6.0,1.0,6.0,99.0,99.0,99.0,5.0,4.0,1.0,1.0,1.0,99.0,5.0,4.0,6.0,6.0,6.0,99.0,1.0,1.0,6.0,,1.0,2.0,1.0,3.0,5.0,,6.0,6.0,1.0,4.0,6.0,6.0,6.0,6.0,6.0,6.0,3.0,1.0,6.0,1.0,6.0,6.0,5.0,5.0,6.0,2.0,2.0,2.0,1.0,6.0,1.0,5.0,,6.0,6.0,6.0,6.0,6.0,1.0,,2.4,2.333333,2.666667,4.333333,3.333333,4.0,6.0,5.3
38416,1090,2020-04-05 17:48:15,EN,32,Female,Up to 12 years of school,Up to 12 years of school,Full time employed,United States,no,Va,Married/cohabiting,3.0,Yes,Life carries on with minor changes,2.0,1.0,,Program C,No,2.0,3.0,3.0,5.0,3.0,1.0,5.0,4.0,3.0,2.0,2.0,3.0,3.0,3.0,7.0,5.0,7.0,6.0,3.0,4.0,1.0,4.0,5.0,5.0,5.0,6.0,5.0,6.0,6.0,6.0,2.0,5.0,4.0,3.0,2.0,6.0,5.0,5.0,3.0,4.0,6.0,5.0,2.0,4.0,5.0,5.0,2.0,5.0,6.0,4.0,6.0,6.0,3.0,5.0,3.0,5.0,1.0,6.0,6.0,6.0,4.0,5.0,3.0,5.0,6.0,2.0,5.0,5.0,4.0,2.0,6.0,2.0,,6.0,5.0,5.0,6.0,6.0,4.0,4.0,6.0,6.0,6.0,3.0,1.0,6.0,2.0,2.0,4.0,1.0,5.0,4.0,4.0,4.0,4.0,2.0,4.0,2.0,3.0,,5.0,4.0,5.0,5.0,5.0,1.0,,2.1,2.666667,2.0,4.666667,5.0,4.666667,5.0,5.4
38456,854,2020-04-05 17:32:38,SME,58,Male,PhD/Doctorate,College degree,Full time employed,United States,yes,Michigan,Married/cohabiting,,No,Isolated,1.0,0.0,,,,4.0,4.0,3.0,4.0,4.0,5.0,4.0,3.0,1.0,5.0,3.0,5.0,4.0,9.0,8.0,8.0,9.0,8.0,8.0,8.0,10.0,5.0,5.0,5.0,5.0,5.0,5.0,5.0,5.0,5.0,4.0,5.0,4.0,4.0,5.0,6.0,5.0,5.0,2.0,2.0,4.0,3.0,3.0,4.0,5.0,4.0,5.0,5.0,6.0,6.0,6.0,6.0,6.0,6.0,6.0,5.0,99.0,6.0,5.0,6.0,6.0,6.0,6.0,6.0,4.0,5.0,6.0,4.0,5.0,5.0,6.0,6.0,,4.0,5.0,4.0,6.0,4.0,6.0,5.0,6.0,3.0,3.0,4.0,4.0,5.0,5.0,5.0,5.0,1.0,2.0,5.0,3.0,3.0,5.0,5.0,4.0,6.0,4.0,,2.0,3.0,3.0,3.0,3.0,3.0,,3.1,4.0,3.333333,5.0,3.0,4.333333,3.666667,4.6
38462,710,2020-04-05 17:28:57,EN,60,Female,"College degree, bachelor, master",Up to 12 years of school,Retired,United States,no,Oregon,Married/cohabiting,0.0,Yes,Life carries on with minor changes,1.0,0.0,,Program D,No,3.0,4.0,4.0,3.0,3.0,3.0,3.0,3.0,3.0,3.0,3.0,2.0,4.0,7.0,9.0,5.0,7.0,7.0,9.0,8.0,5.0,5.0,6.0,5.0,5.0,4.0,2.0,5.0,5.0,5.0,2.0,4.0,4.0,5.0,3.0,4.0,4.0,4.0,4.0,4.0,4.0,3.0,2.0,5.0,5.0,4.0,2.0,5.0,4.0,3.0,99.0,99.0,4.0,5.0,2.0,3.0,99.0,5.0,2.0,6.0,6.0,5.0,2.0,3.0,4.0,4.0,5.0,4.0,2.0,2.0,5.0,2.0,,4.0,5.0,5.0,5.0,3.0,4.0,4.0,5.0,5.0,5.0,4.0,4.0,5.0,2.0,4.0,4.0,1.0,1.0,4.0,4.0,4.0,5.0,3.0,5.0,4.0,4.0,,5.0,4.0,2.0,4.0,5.0,2.0,,3.2,3.0,3.666667,3.666667,3.666667,5.0,4.666667,4.5
38481,986,2020-04-05 17:28:56,EN,64,Female,"College degree, bachelor, master",Up to 12 years of school,Retired,United States,no,Virginia,Married/cohabiting,0.0,Yes,Life carries on with minor changes,1.0,0.0,Program A,,No,3.0,2.0,4.0,4.0,2.0,4.0,3.0,3.0,2.0,2.0,5.0,4.0,5.0,7.0,9.0,10.0,10.0,10.0,4.0,9.0,8.0,5.0,5.0,5.0,5.0,5.0,9.0,5.0,5.0,5.0,5.0,5.0,1.0,2.0,2.0,5.0,6.0,6.0,1.0,5.0,6.0,5.0,1.0,6.0,6.0,5.0,2.0,5.0,99.0,99.0,99.0,99.0,5.0,6.0,99.0,1.0,99.0,4.0,6.0,4.0,6.0,6.0,99.0,4.0,99.0,4.0,6.0,5.0,6.0,4.0,6.0,6.0,,5.0,5.0,5.0,6.0,5.0,5.0,5.0,6.0,5.0,6.0,5.0,5.0,6.0,5.0,6.0,6.0,6.0,6.0,6.0,5.0,5.0,5.0,5.0,5.0,6.0,4.0,,5.0,1.0,1.0,6.0,2.0,6.0,,2.9,4.666667,2.0,6.0,5.333333,6.0,5.0,5.3
38523,688,2020-04-05 17:14:13,EN,57,Female,"College degree, bachelor, master",College degree,Retired,United States,no,Virginia,Married/cohabiting,0.0,Not sure,Life carries on with minor changes,2.0,0.0,,Program C,No,3.0,3.0,3.0,4.0,3.0,2.0,4.0,4.0,2.0,2.0,3.0,3.0,3.0,7.0,9.0,0.0,5.0,7.0,0.0,8.0,0.0,5.0,6.0,6.0,6.0,6.0,0.0,6.0,6.0,6.0,1.0,2.0,5.0,5.0,5.0,5.0,3.0,1.0,5.0,5.0,6.0,5.0,1.0,6.0,6.0,6.0,4.0,5.0,1.0,99.0,1.0,99.0,1.0,4.0,4.0,1.0,99.0,6.0,1.0,6.0,5.0,6.0,1.0,1.0,1.0,3.0,5.0,6.0,6.0,1.0,5.0,1.0,,5.0,5.0,5.0,5.0,5.0,5.0,5.0,5.0,5.0,5.0,1.0,2.0,6.0,2.0,6.0,5.0,1.0,1.0,3.0,6.0,5.0,1.0,5.0,6.0,5.0,5.0,,1.0,5.0,6.0,4.0,2.0,5.0,,2.4,3.0,4.0,2.0,5.333333,6.0,4.666667,5.0
38529,1256,2020-04-05 17:22:36,JA,45,Female,Up to 12 years of school,Up to 9 years of school,Not employed,United States,yes,,Married/cohabiting,0.0,Yes,Life carries on with minor changes,2.0,0.0,Program A,,Not sure,1.0,1.0,2.0,2.0,2.0,1.0,2.0,2.0,2.0,2.0,3.0,1.0,1.0,6.0,8.0,8.0,7.0,5.0,8.0,1.0,7.0,6.0,6.0,4.0,2.0,4.0,5.0,5.0,4.0,4.0,1.0,4.0,6.0,4.0,3.0,4.0,2.0,1.0,5.0,2.0,3.0,2.0,4.0,5.0,3.0,2.0,4.0,3.0,4.0,3.0,5.0,5.0,4.0,1.0,3.0,2.0,1.0,5.0,2.0,6.0,6.0,6.0,4.0,3.0,4.0,1.0,1.0,5.0,5.0,4.0,2.0,1.0,,5.0,3.0,3.0,5.0,5.0,3.0,5.0,5.0,3.0,5.0,4.0,5.0,5.0,2.0,4.0,3.0,3.0,4.0,4.0,3.0,5.0,5.0,3.0,4.0,4.0,3.0,,6.0,6.0,6.0,5.0,6.0,3.0,<U+7279><U+306B><U+3042><U+308A><U+307E><U+305B><U+3093>,2.5,1.666667,3.333333,1.666667,2.333333,3.666667,2.666667,4.2
38547,993,2020-04-05 17:15:00,EN,62,Female,"College degree, bachelor, master",Up to 12 years of school,Self-employed,United States,no,Maryland,Married/cohabiting,2.0,Yes,Isolated,1.0,0.0,,,,3.0,2.0,3.0,4.0,3.0,2.0,3.0,3.0,2.0,2.0,3.0,3.0,4.0,9.0,10.0,6.0,7.0,9.0,7.0,7.0,3.0,4.0,4.0,4.0,5.0,4.0,0.0,5.0,5.0,5.0,1.0,4.0,4.0,5.0,1.0,4.0,5.0,5.0,1.0,5.0,5.0,4.0,1.0,6.0,6.0,4.0,2.0,6.0,1.0,4.0,1.0,2.0,4.0,4.0,1.0,2.0,1.0,4.0,2.0,2.0,4.0,4.0,3.0,1.0,2.0,3.0,2.0,2.0,2.0,2.0,4.0,4.0,,6.0,5.0,6.0,6.0,6.0,6.0,6.0,6.0,6.0,6.0,2.0,6.0,6.0,4.0,4.0,3.0,1.0,1.0,4.0,6.0,4.0,3.0,4.0,4.0,6.0,2.0,,3.0,3.0,3.0,4.0,4.0,3.0,I just miss life as it was and I feel sad. I grieve for the gift of an ordinary day and I vow to never again take that for granted. When I can give my grandkids a hug again it will be the best day ever!,2.5,3.333333,3.0,5.333333,4.666667,6.0,5.0,5.9
38651,745,2020-04-05 16:50:41,EN,27,Female,"College degree, bachelor, master",College degree,Full time employed,United States,no,California,Married/cohabiting,0.0,Yes,Life carries on with minor changes,1.0,0.0,Program B,,Yes,3.0,4.0,4.0,4.0,3.0,3.0,3.0,3.0,5.0,3.0,1.0,3.0,2.0,7.0,9.0,5.0,6.0,6.0,6.0,9.0,1.0,4.0,5.0,4.0,6.0,6.0,0.0,6.0,5.0,4.0,4.0,2.0,3.0,5.0,3.0,4.0,6.0,5.0,2.0,4.0,4.0,2.0,4.0,3.0,4.0,5.0,2.0,6.0,2.0,5.0,99.0,5.0,6.0,5.0,99.0,2.0,99.0,6.0,5.0,5.0,5.0,3.0,4.0,4.0,5.0,4.0,6.0,3.0,4.0,3.0,6.0,5.0,,6.0,6.0,6.0,6.0,6.0,6.0,6.0,6.0,6.0,6.0,3.0,1.0,5.0,1.0,5.0,4.0,3.0,3.0,5.0,5.0,3.0,5.0,4.0,4.0,1.0,4.0,,4.0,6.0,6.0,5.0,4.0,2.0,,3.3,2.0,3.666667,5.333333,3.333333,3.333333,5.333333,6.0
38828,626,2020-04-05 16:13:58,ZH-T,34,Female,PhD/Doctorate,Up to 12 years of school,Full time employed,United States,no,Indiana,Married/cohabiting,0.0,No,Isolated,2.0,0.0,,,,2.0,2.0,2.0,3.0,3.0,2.0,3.0,3.0,2.0,3.0,1.0,1.0,1.0,5.0,7.0,5.0,5.0,5.0,5.0,0.0,0.0,3.0,6.0,5.0,4.0,4.0,4.0,3.0,5.0,5.0,2.0,3.0,4.0,6.0,6.0,4.0,2.0,1.0,5.0,2.0,3.0,2.0,3.0,4.0,4.0,4.0,4.0,4.0,4.0,4.0,99.0,4.0,4.0,2.0,99.0,2.0,99.0,5.0,3.0,5.0,6.0,6.0,4.0,4.0,2.0,3.0,2.0,2.0,5.0,4.0,4.0,4.0,,4.0,4.0,4.0,4.0,4.0,5.0,5.0,5.0,4.0,4.0,4.0,4.0,4.0,3.0,4.0,4.0,5.0,5.0,5.0,4.0,4.0,4.0,4.0,4.0,,4.0,,4.0,5.0,5.0,3.0,5.0,3.0,,2.5,1.0,5.0,1.666667,2.333333,4.0,3.666667,4.3
38837,1062,2020-04-05 16:18:20,EN,44,Female,"College degree, bachelor, master",College degree,Full time employed,United States,no,Iowa,Married/cohabiting,3.0,Yes,Life carries on with minor changes,4.0,0.0,Program A,,No,1.0,2.0,3.0,4.0,4.0,1.0,4.0,3.0,1.0,1.0,1.0,1.0,3.0,7.0,9.0,6.0,7.0,8.0,9.0,3.0,8.0,4.0,4.0,4.0,5.0,5.0,6.0,6.0,5.0,5.0,2.0,4.0,2.0,2.0,2.0,5.0,5.0,4.0,4.0,4.0,5.0,4.0,2.0,5.0,6.0,5.0,2.0,5.0,2.0,3.0,4.0,2.0,,4.0,5.0,99.0,99.0,5.0,2.0,3.0,4.0,4.0,2.0,4.0,3.0,2.0,3.0,2.0,2.0,1.0,4.0,4.0,,6.0,5.0,6.0,,6.0,5.0,6.0,6.0,5.0,6.0,4.0,5.0,5.0,2.0,4.0,5.0,2.0,4.0,5.0,4.0,3.0,5.0,4.0,4.0,6.0,4.0,,3.0,4.0,4.0,4.0,2.0,5.0,,1.8,1.666667,2.0,4.0,4.333333,5.333333,5.0,5.666667
38856,831,2020-04-05 16:10:43,EN,66,Female,"Some College, short continuing education or equivalent",College degree,Retired,United States,no,Michigan,Married/cohabiting,,Yes,Isolated,1.0,0.0,,Program D,No,3.0,3.0,2.0,5.0,3.0,1.0,5.0,4.0,3.0,2.0,2.0,2.0,3.0,7.0,9.0,5.0,6.0,8.0,5.0,7.0,4.0,2.0,3.0,3.0,5.0,5.0,4.0,5.0,5.0,5.0,2.0,3.0,4.0,2.0,3.0,5.0,3.0,1.0,5.0,3.0,5.0,3.0,2.0,5.0,5.0,5.0,3.0,5.0,2.0,2.0,2.0,2.0,4.0,4.0,4.0,3.0,2.0,5.0,5.0,4.0,4.0,4.0,2.0,2.0,2.0,4.0,3.0,3.0,4.0,2.0,4.0,2.0,,6.0,5.0,5.0,5.0,5.0,5.0,6.0,,4.0,5.0,4.0,3.0,5.0,3.0,5.0,4.0,2.0,3.0,5.0,5.0,3.0,4.0,5.0,5.0,6.0,4.0,,4.0,4.0,2.0,2.0,4.0,4.0,,2.1,2.333333,2.333333,2.0,3.666667,5.0,4.666667,5.111111
38907,546,2020-04-05 15:57:00,EN,30,Female,"College degree, bachelor, master",Some College or equivalent,Self-employed,United States,no,Nevada,Single,0.0,No,Isolated,0.0,0.0,Program A,,No,4.0,4.0,5.0,4.0,2.0,5.0,3.0,2.0,4.0,5.0,5.0,2.0,5.0,5.0,7.0,1.0,1.0,5.0,1.0,6.0,1.0,2.0,5.0,5.0,6.0,6.0,0.0,5.0,5.0,6.0,6.0,2.0,2.0,2.0,1.0,4.0,6.0,6.0,1.0,6.0,5.0,6.0,3.0,3.0,4.0,4.0,2.0,6.0,99.0,2.0,99.0,3.0,3.0,6.0,99.0,99.0,99.0,6.0,4.0,6.0,5.0,6.0,99.0,6.0,1.0,6.0,4.0,4.0,3.0,3.0,6.0,5.0,,5.0,6.0,5.0,5.0,5.0,5.0,5.0,5.0,5.0,4.0,3.0,6.0,6.0,1.0,2.0,5.0,2.0,3.0,6.0,3.0,3.0,4.0,2.0,4.0,1.0,1.0,,6.0,6.0,6.0,4.0,5.0,2.0,,4.0,4.0,2.0,6.0,5.666667,3.666667,5.0,5.0
38919,889,2020-04-05 15:58:50,EN,55,Female,"College degree, bachelor, master",Some College or equivalent,Part time employed,United States,no,VA,Married/cohabiting,2.0,Yes,Isolated,4.0,0.0,Program A,,No,3.0,3.0,3.0,4.0,2.0,2.0,4.0,2.0,4.0,2.0,4.0,4.0,3.0,5.0,8.0,1.0,6.0,6.0,1.0,8.0,0.0,5.0,5.0,5.0,6.0,6.0,0.0,5.0,5.0,5.0,2.0,2.0,2.0,4.0,4.0,5.0,4.0,2.0,4.0,4.0,5.0,4.0,5.0,4.0,4.0,5.0,5.0,5.0,2.0,2.0,4.0,99.0,4.0,5.0,1.0,4.0,99.0,5.0,5.0,6.0,6.0,6.0,1.0,4.0,2.0,4.0,3.0,3.0,3.0,3.0,5.0,4.0,,6.0,6.0,6.0,6.0,6.0,5.0,6.0,6.0,4.0,6.0,2.0,6.0,6.0,2.0,4.0,4.0,2.0,3.0,3.0,5.0,3.0,6.0,4.0,4.0,4.0,1.0,,2.0,5.0,4.0,3.0,2.0,1.0,,2.9,3.666667,3.333333,3.0,4.333333,3.333333,4.0,5.7
38923,1200,2020-04-05 16:02:16,EN,61,Female,"College degree, bachelor, master",College degree,Retired,United States,no,Virginia,Married/cohabiting,1.0,Yes,Isolated,1.0,0.0,,Program C,Yes,2.0,2.0,2.0,4.0,3.0,2.0,4.0,4.0,2.0,2.0,2.0,2.0,2.0,6.0,8.0,6.0,7.0,9.0,7.0,9.0,9.0,6.0,6.0,6.0,6.0,6.0,4.0,5.0,5.0,6.0,1.0,3.0,2.0,5.0,4.0,5.0,6.0,4.0,4.0,6.0,6.0,6.0,3.0,5.0,5.0,5.0,4.0,5.0,3.0,5.0,2.0,4.0,4.0,4.0,3.0,3.0,99.0,5.0,4.0,4.0,6.0,5.0,3.0,3.0,5.0,5.0,5.0,5.0,4.0,3.0,4.0,4.0,,4.0,5.0,5.0,5.0,5.0,5.0,4.0,5.0,4.0,5.0,4.0,4.0,5.0,5.0,5.0,3.0,2.0,2.0,5.0,4.0,5.0,5.0,4.0,5.0,5.0,5.0,,3.0,6.0,3.0,5.0,5.0,4.0,,2.1,2.0,3.666667,4.333333,6.0,4.666667,4.333333,4.7
38957,876,2020-04-05 15:45:50,EN,56,Female,"Some College, short continuing education or equivalent",Some College or equivalent,Retired,United States,no,Virginia,Married/cohabiting,1.0,Yes,Isolated,2.0,0.0,,Program D,No,3.0,4.0,5.0,3.0,2.0,3.0,3.0,2.0,4.0,3.0,3.0,4.0,5.0,2.0,2.0,0.0,2.0,1.0,3.0,1.0,2.0,4.0,3.0,3.0,3.0,3.0,6.0,5.0,5.0,6.0,3.0,2.0,2.0,4.0,4.0,2.0,3.0,1.0,5.0,5.0,6.0,4.0,1.0,4.0,6.0,5.0,4.0,5.0,2.0,2.0,5.0,99.0,6.0,6.0,1.0,2.0,99.0,5.0,4.0,3.0,3.0,99.0,99.0,2.0,4.0,4.0,2.0,4.0,1.0,2.0,6.0,4.0,,6.0,5.0,4.0,5.0,6.0,5.0,6.0,6.0,4.0,6.0,2.0,3.0,5.0,2.0,1.0,5.0,6.0,6.0,6.0,3.0,3.0,3.0,3.0,5.0,1.0,3.0,,2.0,1.0,2.0,2.0,2.0,1.0,There is TOO much media.,3.6,4.0,4.333333,2.0,5.0,5.333333,4.333333,5.3
39003,2842,2020-04-05 16:07:20,EN,65,Female,"Some College, short continuing education or equivalent",Up to 12 years of school,Full time employed,United States,no,Pennsylvania,Single,0.0,No,Life carries on with minor changes,0.0,0.0,Program A,,No,1.0,2.0,3.0,4.0,4.0,1.0,4.0,5.0,2.0,2.0,1.0,1.0,2.0,5.0,9.0,1.0,7.0,6.0,3.0,9.0,,5.0,6.0,6.0,6.0,6.0,0.0,5.0,6.0,5.0,1.0,1.0,1.0,3.0,1.0,5.0,2.0,1.0,6.0,1.0,5.0,2.0,4.0,2.0,3.0,5.0,1.0,6.0,99.0,2.0,99.0,1.0,4.0,2.0,1.0,99.0,99.0,4.0,2.0,6.0,6.0,6.0,99.0,1.0,4.0,1.0,1.0,4.0,,2.0,4.0,4.0,,6.0,5.0,5.0,5.0,6.0,5.0,6.0,5.0,5.0,6.0,1.0,2.0,5.0,3.0,3.0,4.0,1.0,4.0,3.0,3.0,4.0,3.0,4.0,3.0,4.0,4.0,,1.0,4.0,5.0,4.0,4.0,2.0,"A month ago I was VERY stressed about this global crisis on a personal level- any physical change..feeling flushed, sore throat, itchy eyes...was constantly taking my temp (always normal) I was basically driving myself crazy until I came to grips and realized probably it was seasonal allergies. I have returned to my calm, common sensed nature. I still think most people will actually be infected and most will fight it off. I have a good immune system, as I rarely get sick, and I trust it will see me through this. Is disconcerting to hear of younger, healthier people dying and I have such a strong sense of compassion for all Healthcare workers on the front lines.They are overwhelmed with too many critically ill people with insufficient needed supplies while facing being infected themselves. Too many have already died. My (non medical) workplace is considered essential and remains open. I worked 29 of 31 days in Mar...60 hr weeks. They came on board with CDC guidelines AFTER fiscal Quarter close (3/31). We now all have gloves/masks available, have spaced out breaks/lunches. Starting next week 2 teams with alternate work weeks in April to lessen the amt of people in bldg at one time...and we will be paid w/o using any of our PTO so at least I'm not facing financial stress. So basically, I was a mess, am better now, but still worry about others. If you have any questions for me, I'd be happy to answer   pjmellon@comcast.net",1.8,1.333333,2.0,1.333333,2.666667,2.666667,5.666667,5.4
39051,1497,2020-04-05 15:33:00,EN,55,Female,"College degree, bachelor, master",Up to 9 years of school,Part time employed,United States,no,Virginia,Married/cohabiting,2.0,No,Isolated,2.0,0.0,Program A,,No,3.0,2.0,5.0,4.0,3.0,1.0,4.0,3.0,5.0,2.0,1.0,1.0,3.0,5.0,8.0,3.0,9.0,9.0,7.0,10.0,0.0,4.0,4.0,6.0,6.0,6.0,0.0,6.0,6.0,6.0,2.0,4.0,4.0,4.0,5.0,3.0,6.0,6.0,1.0,5.0,5.0,4.0,3.0,5.0,5.0,5.0,1.0,5.0,1.0,1.0,2.0,1.0,1.0,5.0,99.0,4.0,99.0,6.0,5.0,5.0,6.0,6.0,1.0,2.0,1.0,2.0,3.0,99.0,4.0,1.0,4.0,5.0,,6.0,6.0,6.0,6.0,6.0,6.0,6.0,6.0,6.0,6.0,1.0,6.0,6.0,1.0,4.0,6.0,1.0,4.0,4.0,5.0,4.0,5.0,5.0,6.0,1.0,4.0,"What do you mean ""face-to-face interactions""?  I'm isolated.  I'm not having any face-to-face anything.",1.0,5.0,5.0,3.0,5.0,2.0,"1) No one in my family has been ill.  I think you should have asked if the person doing the survey has had COVID-19, whether at home or in a health facility.  That would surely affect the person's thinking.  2) I am *very* worried about many loved ones.  I'm doing all I can by staying home.  And I'm trying to not watch much news so I don't get too sad.  My sadness doesn't help anyone.  3) My two college sons are home.  I have a LOT of free time for hobbies.  4) I am *very* angry at the US government response.  You asked if I trust the US government.  Normally, I would say 90%.  But I do not trust Trump and his people.  I trust the Democrats to fight against him, but there is only so much they can do.  I don't even remember how I answered the question about whether or not I trust the government.  I didn't know if you meant this government, this president.",2.8,1.666667,4.333333,6.0,4.666667,4.666667,5.333333,6.0
39162,9497,2020-04-05 17:17:21,EN,58,Female,"College degree, bachelor, master",Up to 12 years of school,Part time employed,United States,no,Virginia,Married/cohabiting,2.0,No,Isolated,1.0,0.0,Program A,,No,3.0,3.0,3.0,5.0,4.0,2.0,4.0,4.0,3.0,2.0,2.0,2.0,2.0,4.0,7.0,4.0,4.0,7.0,4.0,1.0,0.0,6.0,6.0,6.0,5.0,5.0,1.0,5.0,6.0,5.0,1.0,3.0,5.0,3.0,2.0,5.0,5.0,6.0,1.0,4.0,5.0,3.0,4.0,5.0,5.0,6.0,2.0,5.0,6.0,2.0,5.0,5.0,2.0,2.0,2.0,2.0,99.0,4.0,2.0,4.0,2.0,3.0,99.0,2.0,1.0,1.0,2.0,1.0,1.0,1.0,4.0,4.0,,5.0,5.0,5.0,5.0,5.0,5.0,5.0,5.0,5.0,5.0,4.0,5.0,5.0,2.0,3.0,4.0,4.0,2.0,5.0,4.0,4.0,5.0,2.0,5.0,4.0,4.0,,5.0,5.0,6.0,4.0,5.0,2.0,"Mainly thinking about the poor and irresponsible behavior of leaders and people in general.  It's mind boggling how immature so many who did not initially take this situation seriously.  Politics has become such a game for those in charge, which seems to more important than the reality of this dire situation. And that I do worry about more than anything. People are so much more stupid than I'd ever have imagined.",2.3,2.0,2.333333,5.666667,4.0,4.333333,5.333333,5.0
39251,607,2020-04-05 14:29:25,EN,50,Female,"College degree, bachelor, master",Up to 12 years of school,Self-employed,United States,no,Oregon,Married/cohabiting,0.0,Yes,Isolated,1.0,0.0,Program A,,No,1.0,5.0,2.0,5.0,3.0,1.0,5.0,4.0,2.0,1.0,2.0,1.0,3.0,2.0,6.0,5.0,7.0,9.0,6.0,8.0,3.0,5.0,6.0,6.0,6.0,6.0,2.0,6.0,6.0,5.0,2.0,2.0,5.0,5.0,1.0,6.0,2.0,1.0,6.0,5.0,6.0,6.0,4.0,6.0,6.0,4.0,3.0,6.0,5.0,2.0,99.0,6.0,2.0,2.0,1.0,1.0,99.0,5.0,2.0,5.0,6.0,6.0,2.0,2.0,1.0,1.0,2.0,1.0,1.0,1.0,5.0,1.0,,5.0,5.0,5.0,5.0,5.0,5.0,5.0,5.0,5.0,5.0,4.0,5.0,5.0,2.0,5.0,5.0,1.0,1.0,1.0,6.0,6.0,5.0,4.0,5.0,1.0,6.0,,4.0,6.0,6.0,1.0,3.0,4.0,,1.9,2.0,2.333333,1.333333,5.666667,5.0,4.666667,5.0
39270,935,2020-04-05 14:30:25,EN,32,Female,"College degree, bachelor, master",College degree,Full time employed,United States,no,OR,Married/cohabiting,2.0,Yes,Isolated,1.0,2.0,Program A,,No,4.0,2.0,4.0,3.0,3.0,2.0,3.0,2.0,3.0,3.0,2.0,2.0,4.0,7.0,8.0,6.0,6.0,5.0,7.0,9.0,7.0,5.0,6.0,5.0,5.0,4.0,4.0,5.0,2.0,3.0,3.0,3.0,4.0,3.0,4.0,5.0,5.0,5.0,2.0,5.0,5.0,4.0,4.0,5.0,4.0,5.0,2.0,5.0,2.0,4.0,2.0,2.0,5.0,4.0,4.0,5.0,3.0,6.0,5.0,5.0,5.0,5.0,4.0,5.0,3.0,3.0,4.0,4.0,4.0,2.0,5.0,2.0,,5.0,5.0,5.0,5.0,5.0,5.0,5.0,5.0,5.0,5.0,4.0,4.0,5.0,3.0,5.0,4.0,2.0,2.0,4.0,5.0,4.0,4.0,5.0,5.0,4.0,4.0,,5.0,4.0,5.0,4.0,4.0,2.0,,3.1,2.666667,3.0,5.0,4.666667,4.0,5.0,5.0
39294,1071,2020-04-06 14:28:37,EN,21,Female,"College degree, bachelor, master",College degree,Student,United States,yes,Texas,Single,0.0,Not sure,Life carries on with minor changes,7.0,2.0,,Program D,No,4.0,2.0,3.0,5.0,3.0,2.0,3.0,2.0,5.0,2.0,3.0,3.0,4.0,6.0,9.0,3.0,4.0,3.0,6.0,6.0,2.0,4.0,5.0,5.0,6.0,5.0,5.0,6.0,5.0,4.0,3.0,6.0,6.0,4.0,3.0,4.0,5.0,4.0,4.0,3.0,4.0,2.0,1.0,4.0,4.0,,3.0,4.0,,,,,,,,,,,,,,,,,,,,,,,,,,,,,,,,,,,,,,,,,,,,,,,,,,,,,,,,,,,,2.9,3.333333,3.333333,4.0,3.0,4.666667,4.0,
39308,966,2020-04-06 14:23:56,EN,61,Female,"College degree, bachelor, master",Up to 9 years of school,Full time employed,United States,no,Virginia,Married/cohabiting,0.0,Not sure,Life carries on with minor changes,2.0,0.0,Program A,,Not sure,2.0,1.0,3.0,4.0,4.0,2.0,4.0,4.0,1.0,2.0,1.0,2.0,1.0,9.0,10.0,5.0,9.0,10.0,8.0,10.0,1.0,5.0,5.0,5.0,6.0,6.0,4.0,6.0,6.0,6.0,2.0,5.0,5.0,4.0,5.0,3.0,3.0,3.0,5.0,5.0,6.0,4.0,1.0,6.0,6.0,6.0,1.0,6.0,99.0,6.0,,,,99.0,99.0,,99.0,,99.0,,,6.0,,,3.0,99.0,,99.0,,,,,,,,,,,,,,,,,,,,,,,,,,,,,,,,,,,,,,,,1.9,1.333333,4.333333,2.666667,5.0,6.0,6.0,
39314,533,2020-04-06 14:15:41,EN,61,Female,"College degree, bachelor, master",Some College or equivalent,Full time employed,United States,no,Maine,Divorced/widowed,0.0,Yes,Isolated,0.0,0.0,Program A,,No,1.0,4.0,3.0,4.0,4.0,3.0,4.0,3.0,2.0,3.0,5.0,2.0,5.0,5.0,8.0,7.0,9.0,9.0,8.0,9.0,5.0,5.0,5.0,5.0,5.0,5.0,0.0,6.0,5.0,6.0,4.0,4.0,4.0,3.0,4.0,3.0,3.0,3.0,5.0,4.0,6.0,4.0,1.0,6.0,6.0,5.0,4.0,5.0,,,,,,,,,,,,,,,,,,,,,,,,,,,,,,,,,,,,,,,,,,,,,,,,,,,,,,,,,,,,2.5,4.0,3.666667,2.666667,4.666667,6.0,4.333333,
39347,892,2020-04-05 14:14:21,EN,50,Female,"Some College, short continuing education or equivalent",Some College or equivalent,Not employed,United States,yes,Virginia,Married/cohabiting,2.0,Yes,Isolated,3.0,0.0,,,,2.0,4.0,2.0,3.0,4.0,2.0,4.0,2.0,2.0,3.0,3.0,4.0,4.0,4.0,8.0,1.0,3.0,2.0,1.0,8.0,1.0,6.0,6.0,6.0,6.0,6.0,3.0,5.0,6.0,6.0,1.0,3.0,4.0,3.0,4.0,5.0,6.0,5.0,2.0,4.0,5.0,4.0,2.0,5.0,5.0,3.0,5.0,3.0,99.0,99.0,99.0,99.0,4.0,4.0,1.0,2.0,99.0,5.0,4.0,6.0,6.0,6.0,99.0,5.0,99.0,5.0,2.0,99.0,3.0,2.0,5.0,6.0,,6.0,5.0,6.0,6.0,6.0,6.0,6.0,6.0,4.0,6.0,2.0,1.0,5.0,1.0,5.0,5.0,4.0,2.0,4.0,4.0,5.0,5.0,5.0,4.0,1.0,,,2.0,3.0,6.0,4.0,4.0,5.0,,2.6,3.666667,3.0,5.333333,4.333333,5.0,2.666667,5.7
39361,1015,2020-04-06 14:15:02,EN,65,Male,"College degree, bachelor, master",Some College or equivalent,Full time employed,United States,no,Missouri,Divorced/widowed,0.0,Yes,Life carries on with minor changes,1.0,0.0,Program B,,No,2.0,2.0,2.0,2.0,3.0,1.0,4.0,4.0,1.0,2.0,3.0,1.0,2.0,7.0,9.0,5.0,7.0,5.0,8.0,4.0,8.0,3.0,3.0,3.0,1.0,4.0,5.0,6.0,6.0,5.0,1.0,5.0,1.0,2.0,2.0,5.0,5.0,4.0,3.0,5.0,5.0,4.0,1.0,5.0,6.0,4.0,2.0,5.0,,,,,,,,,,,,,,,,,,,,,,,,,,,,,,,,,,,,,,,,,,,,,,,,,,,,,,,,,,,,2.1,2.0,2.0,4.333333,4.666667,5.666667,4.666667,
39388,736,2020-04-06 14:05:32,EN,45,Female,"College degree, bachelor, master",Up to 12 years of school,Not employed,United States,no,Ca,Married/cohabiting,3.0,Yes,Life carries on with minor changes,1.0,3.0,,Program D,No,3.0,3.0,2.0,5.0,4.0,2.0,4.0,4.0,1.0,1.0,1.0,1.0,3.0,5.0,7.0,7.0,8.0,8.0,8.0,8.0,7.0,4.0,6.0,5.0,5.0,5.0,3.0,6.0,5.0,5.0,2.0,4.0,5.0,4.0,2.0,5.0,4.0,4.0,4.0,2.0,5.0,3.0,2.0,5.0,5.0,4.0,4.0,4.0,4.0,3.0,6.0,99.0,5.0,4.0,4.0,3.0,2.0,6.0,4.0,5.0,5.0,4.0,4.0,5.0,3.0,4.0,4.0,2.0,3.0,2.0,5.0,4.0,,6.0,6.0,5.0,5.0,6.0,5.0,6.0,6.0,5.0,6.0,5.0,4.0,6.0,1.0,5.0,6.0,2.0,2.0,5.0,4.0,4.0,5.0,2.0,4.0,5.0,5.0,,5.0,5.0,5.0,4.0,5.0,2.0,,1.9,1.666667,2.666667,3.666667,3.333333,5.0,3.666667,5.6
39452,514,2020-04-06 13:48:58,EN,56,Female,Up to 12 years of school,Up to 12 years of school,Part time employed,United States,no,Oregon,Married/cohabiting,1.0,Yes,Isolated,1.0,0.0,,Program D,Yes,3.0,2.0,3.0,3.0,3.0,1.0,5.0,2.0,1.0,4.0,1.0,1.0,4.0,6.0,10.0,5.0,8.0,8.0,6.0,6.0,8.0,5.0,5.0,5.0,4.0,4.0,8.0,5.0,5.0,4.0,6.0,5.0,5.0,6.0,5.0,5.0,6.0,5.0,5.0,4.0,5.0,5.0,5.0,5.0,6.0,6.0,1.0,6.0,,,,,,,,,,,,,,,,,,,,,,,,,,,,,,,,,,,,,,,,,,,,,,,,,,,,,,,,,,,,2.5,2.0,4.333333,4.333333,4.666667,4.333333,6.0,
39486,1184,2020-04-05 13:52:34,EN,55,Female,"College degree, bachelor, master",Up to 12 years of school,Self-employed,United States,no,California,Divorced/widowed,1.0,Yes,Isolated,0.0,0.0,,Program C,No,3.0,4.0,2.0,5.0,2.0,2.0,5.0,3.0,2.0,2.0,4.0,3.0,5.0,2.0,5.0,6.0,7.0,6.0,7.0,7.0,7.0,5.0,5.0,5.0,5.0,5.0,5.0,5.0,6.0,5.0,2.0,3.0,4.0,4.0,2.0,5.0,5.0,5.0,2.0,5.0,5.0,2.0,1.0,5.0,5.0,4.0,2.0,5.0,4.0,5.0,4.0,4.0,5.0,2.0,99.0,99.0,99.0,6.0,5.0,4.0,6.0,6.0,5.0,3.0,99.0,5.0,5.0,99.0,4.0,2.0,5.0,2.0,,1.0,5.0,5.0,4.0,3.0,2.0,4.0,5.0,5.0,2.0,5.0,5.0,4.0,5.0,5.0,4.0,1.0,1.0,2.0,4.0,5.0,5.0,4.0,4.0,3.0,5.0,,5.0,5.0,3.0,4.0,5.0,5.0,,2.4,4.0,2.666667,5.0,4.0,5.333333,4.666667,3.6
39531,828,2020-04-05 13:41:03,EN,62,Female,PhD/Doctorate,Up to 12 years of school,Full time employed,United States,no,Oregon,Divorced/widowed,0.0,No,Isolated,0.0,0.0,Program A,,No,3.0,4.0,5.0,3.0,3.0,4.0,4.0,3.0,1.0,5.0,5.0,5.0,5.0,6.0,8.0,2.0,9.0,7.0,8.0,9.0,4.0,5.0,5.0,5.0,5.0,5.0,1.0,5.0,6.0,5.0,1.0,3.0,2.0,3.0,1.0,6.0,3.0,1.0,5.0,4.0,5.0,4.0,2.0,3.0,6.0,6.0,2.0,6.0,1.0,1.0,2.0,5.0,6.0,6.0,99.0,99.0,99.0,6.0,5.0,5.0,6.0,6.0,2.0,2.0,6.0,6.0,6.0,99.0,2.0,2.0,6.0,4.0,,1.0,4.0,1.0,1.0,1.0,4.0,1.0,1.0,4.0,1.0,5.0,2.0,5.0,2.0,4.0,5.0,6.0,5.0,6.0,6.0,3.0,5.0,6.0,4.0,1.0,4.0,,4.0,4.0,3.0,3.0,5.0,2.0,,3.3,5.0,1.666667,2.0,4.333333,4.666667,5.666667,1.9
39548,353,2020-04-06 13:30:43,EN,63,Female,Up to 12 years of school,Some College or equivalent,Retired,United States,no,Oregon,Married/cohabiting,0.0,Yes,Life carries on with minor changes,1.0,0.0,Program B,,No,2.0,5.0,2.0,5.0,4.0,1.0,4.0,4.0,2.0,1.0,1.0,2.0,2.0,,,,,,,,,,,,,,,,,,,,,,,,,,,,,,,,,,,,,,,,,,,,,,,,,,,,,,,,,,,,,,,,,,,,,,,,,,,,,,,,,,,,,,,,,,,,,,,2.0,1.666667,,,,,,
39558,1046,2020-04-05 13:40:24,EN,24,Female,"Some College, short continuing education or equivalent",PhD/Doctorate,Student,United States,no,Oregon,Single,0.0,No,Life carries on with minor changes,1.0,0.0,,Program C,No,2.0,4.0,3.0,4.0,2.0,3.0,2.0,3.0,3.0,3.0,5.0,4.0,5.0,3.0,9.0,3.0,5.0,5.0,5.0,8.0,6.0,4.0,4.0,5.0,4.0,3.0,5.0,5.0,5.0,4.0,3.0,2.0,4.0,2.0,2.0,5.0,6.0,4.0,4.0,3.0,5.0,3.0,2.0,5.0,5.0,4.0,3.0,5.0,6.0,99.0,99.0,4.0,3.0,5.0,6.0,3.0,99.0,4.0,3.0,6.0,3.0,5.0,4.0,4.0,2.0,6.0,5.0,4.0,2.0,1.0,6.0,99.0,,6.0,4.0,5.0,5.0,6.0,4.0,6.0,5.0,3.0,6.0,4.0,6.0,5.0,4.0,3.0,4.0,2.0,3.0,4.0,5.0,4.0,4.0,3.0,6.0,5.0,5.0,,4.0,5.0,5.0,4.0,5.0,5.0,,3.1,4.666667,2.0,4.333333,3.666667,5.0,4.333333,5.0
39563,381,2020-04-06 13:29:22,PT-BR,37,Female,PhD/Doctorate,PhD/Doctorate,Full time employed,United States,yes,Texaa,Divorced/widowed,0.0,Yes,Isolated,0.0,0.0,,Program C,No,3.0,5.0,4.0,4.0,2.0,2.0,4.0,2.0,3.0,3.0,4.0,3.0,4.0,,,,,,,,,,,,,,,,,,,,,,,,,,,,,,,,,,,,,,,,,,,,,,,,,,,,,,,,,,,,,,,,,,,,,,,,,,,,,,,,,,,,,,,,,,,,,,,3.2,3.666667,,,,,,
39571,1199,2020-04-05 13:41:10,FA,24,Female,"Some College, short continuing education or equivalent",,Not employed,United States,yes,colorado,Married/cohabiting,1.0,Yes,Life carries on with minor changes,1.0,1.0,,Program C,No,3.0,3.0,3.0,4.0,3.0,1.0,5.0,3.0,3.0,3.0,1.0,1.0,3.0,8.0,9.0,8.0,10.0,10.0,10.0,10.0,7.0,4.0,5.0,4.0,5.0,5.0,3.0,5.0,5.0,5.0,2.0,5.0,3.0,3.0,3.0,5.0,5.0,5.0,2.0,5.0,5.0,5.0,2.0,5.0,5.0,5.0,2.0,5.0,3.0,5.0,2.0,2.0,3.0,5.0,5.0,2.0,5.0,5.0,4.0,5.0,5.0,5.0,5.0,5.0,3.0,5.0,5.0,5.0,2.0,2.0,5.0,5.0,,5.0,5.0,5.0,5.0,5.0,5.0,5.0,5.0,5.0,5.0,5.0,2.0,5.0,2.0,5.0,5.0,5.0,4.0,5.0,5.0,5.0,5.0,5.0,5.0,5.0,5.0,,2.0,5.0,4.0,5.0,5.0,4.0,,2.5,1.666667,2.666667,5.0,5.0,5.0,5.0,5.0
39592,827,2020-04-05 13:32:55,EN,40,Female,"College degree, bachelor, master",College degree,Self-employed,United States,no,OR,Single,0.0,Yes,Life carries on with minor changes,,,,Program C,No,3.0,3.0,2.0,4.0,4.0,2.0,4.0,4.0,1.0,1.0,3.0,2.0,3.0,3.0,8.0,2.0,1.0,5.0,3.0,3.0,0.0,4.0,5.0,5.0,6.0,6.0,0.0,4.0,5.0,6.0,2.0,3.0,4.0,3.0,2.0,6.0,2.0,1.0,5.0,4.0,5.0,4.0,3.0,3.0,4.0,4.0,1.0,5.0,6.0,4.0,99.0,5.0,99.0,2.0,99.0,99.0,99.0,5.0,5.0,6.0,6.0,6.0,2.0,3.0,4.0,3.0,5.0,99.0,99.0,1.0,2.0,4.0,,5.0,5.0,5.0,5.0,5.0,5.0,5.0,5.0,5.0,5.0,1.0,6.0,5.0,3.0,5.0,5.0,1.0,1.0,4.0,3.0,3.0,1.0,5.0,2.0,1.0,1.0,,1.0,5.0,5.0,4.0,5.0,2.0,,2.0,2.666667,2.0,1.666667,4.333333,3.666667,5.0,5.0
39600,144,2020-04-06 13:21:07,EN,52,Female,PhD/Doctorate,Some College or equivalent,Full time employed,United States,no,Oregon,Married/cohabiting,2.0,Yes,Isolated,1.0,0.0,,,,,,,,,,,,,,,,,,,,,,,,,,,,,,,,,,,,,,,,,,,,,,,,,,,,,,,,,,,,,,,,,,,,,,,,,,,,,,,,,,,,,,,,,,,,,,,,,,,,,,,,,,,,,,,,,,,,,,
39605,992,2020-04-05 13:33:16,EN,48,Female,"College degree, bachelor, master",College degree,Self-employed,United States,no,Wisconsin,Married/cohabiting,2.0,Yes,Isolated,3.0,0.0,Program B,,No,1.0,1.0,1.0,5.0,5.0,,5.0,4.0,1.0,1.0,1.0,1.0,2.0,7.0,10.0,7.0,7.0,7.0,7.0,7.0,7.0,6.0,6.0,6.0,6.0,6.0,3.0,5.0,5.0,5.0,1.0,2.0,1.0,1.0,1.0,5.0,3.0,5.0,5.0,4.0,4.0,2.0,4.0,5.0,6.0,3.0,1.0,5.0,1.0,1.0,4.0,99.0,4.0,5.0,2.0,1.0,99.0,4.0,2.0,4.0,5.0,5.0,99.0,99.0,1.0,1.0,4.0,1.0,1.0,1.0,5.0,99.0,,6.0,5.0,6.0,6.0,6.0,6.0,6.0,6.0,5.0,6.0,5.0,1.0,5.0,2.0,2.0,5.0,1.0,1.0,6.0,4.0,1.0,5.0,5.0,4.0,6.0,5.0,,5.0,5.0,1.0,1.0,2.0,2.0,Daughters college graduation ceremony being postponed.,1.111111,1.333333,1.333333,3.333333,3.333333,4.666667,4.666667,5.8
39614,566,2020-04-06 13:24:39,EN,74,Female,"College degree, bachelor, master",Some College or equivalent,Retired,United States,no,Washington stare,Married/cohabiting,2.0,Yes,Life carries on with minor changes,3.0,0.0,,Program D,No,2.0,2.0,2.0,4.0,4.0,2.0,4.0,4.0,2.0,2.0,2.0,2.0,2.0,7.0,10.0,9.0,10.0,10.0,9.0,1.0,9.0,3.0,3.0,3.0,4.0,4.0,5.0,5.0,5.0,5.0,2.0,5.0,5.0,3.0,4.0,4.0,4.0,2.0,2.0,4.0,3.0,3.0,3.0,5.0,5.0,3.0,3.0,3.0,,,,,,,,,,,,,,,,,,,,,,,,,,,,,,,,,,,,,,,,,,,,,,,,,,,,,,,,,,,,2.0,2.0,3.333333,3.666667,3.333333,4.666667,3.333333,
39622,483,2020-04-06 13:22:13,EN,20,Female,"College degree, bachelor, master",Some College or equivalent,Not employed,United States,no,Texas,Single,3.0,Yes,Isolated,4.0,0.0,,Program C,Not sure,4.0,4.0,4.0,3.0,3.0,4.0,3.0,2.0,3.0,4.0,4.0,3.0,4.0,4.0,7.0,5.0,4.0,5.0,4.0,5.0,4.0,5.0,6.0,4.0,6.0,6.0,2.0,6.0,6.0,6.0,6.0,6.0,6.0,6.0,6.0,4.0,5.0,4.0,3.0,5.0,5.0,5.0,4.0,5.0,6.0,3.0,4.0,5.0,5.0,6.0,99.0,6.0,6.0,5.0,4.0,6.0,4.0,6.0,6.0,6.0,5.0,6.0,5.0,5.0,3.0,6.0,6.0,5.0,5.0,5.0,6.0,3.0,,4.0,4.0,3.0,4.0,4.0,2.0,4.0,5.0,4.0,4.0,2.0,1.0,3.0,3.0,4.0,4.0,1.0,2.0,4.0,3.0,3.0,3.0,5.0,5.0,4.0,3.0,,4.0,3.0,4.0,4.0,3.0,3.0,,3.6,3.666667,5.0,4.333333,5.0,4.666667,3.666667,3.8
39629,1131,2020-04-05 13:31:29,EN,53,Female,"College degree, bachelor, master",PhD/Doctorate,Full time employed,United States,no,Tennesee,Single,1.0,Yes,Isolated,0.0,0.0,Program A,,No,4.0,2.0,5.0,4.0,2.0,3.0,5.0,4.0,4.0,2.0,5.0,4.0,4.0,7.0,9.0,6.0,6.0,7.0,7.0,8.0,3.0,5.0,6.0,6.0,6.0,6.0,0.0,5.0,5.0,5.0,3.0,5.0,1.0,6.0,5.0,5.0,5.0,3.0,4.0,5.0,6.0,5.0,2.0,5.0,6.0,3.0,3.0,5.0,3.0,6.0,5.0,5.0,3.0,5.0,99.0,99.0,99.0,5.0,4.0,6.0,6.0,6.0,1.0,3.0,1.0,6.0,6.0,5.0,3.0,2.0,5.0,99.0,I am truly concerned about the world population struggling with this virus,6.0,5.0,6.0,6.0,6.0,5.0,6.0,6.0,6.0,6.0,1.0,4.0,6.0,4.0,6.0,3.0,5.0,2.0,5.0,5.0,5.0,2.0,6.0,5.0,5.0,2.0,,4.0,6.0,5.0,5.0,6.0,5.0,"Im home a lot more than normal. Im trying very hard to keep my family, community, and myself safe.",2.9,4.333333,4.333333,3.666667,5.333333,5.333333,4.0,5.8
39642,176,2020-04-06 13:13:33,EN,46,Female,"College degree, bachelor, master",,Part time employed,United States,no,VA,Married/cohabiting,2.0,Yes,Life carries on with minor changes,1.0,2.0,,Program D,,,,,,,,,,,,,,,,,,,,,,,,,,,,,,,,,,,,,,,,,,,,,,,,,,,,,,,,,,,,,,,,,,,,,,,,,,,,,,,,,,,,,,,,,,,,,,,,,,,,,,,,,,,,,,,,,,,,
39679,190,2020-04-06 13:06:37,EN,45,Male,"College degree, bachelor, master",PhD/Doctorate,Full time employed,United States,no,Tennessee,Married/cohabiting,3.0,Yes,Isolated,1.0,2.0,Program A,,,,,,,,,,,,,,,,,,,,,,,,,,,,,,,,,,,,,,,,,,,,,,,,,,,,,,,,,,,,,,,,,,,,,,,,,,,,,,,,,,,,,,,,,,,,,,,,,,,,,,,,,,,,,,,,,,,,,
39685,1072,2020-04-06 13:20:03,EN,68,Female,"College degree, bachelor, master",PhD/Doctorate,Self-employed,United States,no,Connecticut,Single,0.0,Yes,Isolated,0.0,0.0,,Program D,No,3.0,3.0,3.0,4.0,3.0,3.0,3.0,3.0,4.0,3.0,2.0,2.0,2.0,7.0,10.0,1.0,5.0,5.0,2.0,7.0,0.0,6.0,5.0,6.0,5.0,,0.0,6.0,6.0,6.0,2.0,2.0,4.0,6.0,2.0,6.0,4.0,4.0,,6.0,6.0,6.0,,5.0,5.0,,5.0,6.0,1.0,4.0,99.0,99.0,2.0,1.0,2.0,99.0,99.0,6.0,5.0,5.0,5.0,6.0,99.0,1.0,1.0,2.0,1.0,1.0,1.0,1.0,5.0,1.0,,5.0,5.0,5.0,5.0,5.0,6.0,6.0,5.0,6.0,6.0,2.0,1.0,6.0,1.0,6.0,5.0,1.0,1.0,5.0,3.0,4.0,2.0,4.0,4.0,6.0,1.0,,1.0,6.0,6.0,2.0,3.0,5.0,"My distrust of US government (in)action has increased 10-fold since I started following coronavirus news In late January. The lies are so blatant - thats raising my blood pressure and making me feel hopeless at times. Trump and his minions preen, self-congratulate and blame everyone else for their lack of planning, coordination, results. Maddening to be stuck with ignoramuses who ignore science and peoples suffering.",3.0,2.0,3.0,4.0,6.0,5.0,4.0,5.4
39688,439,2020-04-06 13:09:07,EN,49,Female,"College degree, bachelor, master",College degree,Full time employed,United States,no,Wisconsin,Married/cohabiting,0.0,Yes,Life carries on with minor changes,,,,Program D,No,,1.0,2.0,2.0,3.0,2.0,4.0,4.0,3.0,2.0,2.0,2.0,2.0,7.0,7.0,0.0,6.0,6.0,0.0,7.0,0.0,2.0,4.0,3.0,4.0,4.0,0.0,4.0,4.0,5.0,4.0,3.0,4.0,3.0,1.0,5.0,3.0,1.0,5.0,4.0,,5.0,4.0,4.0,4.0,4.0,4.0,3.0,,,,,,,,,,,,,,,,,,,,,,,,,,,,,,,,,,,,,,,,,,,,,,,,,,,,,,,,,,,,2.333333,2.0,2.0,2.0,4.5,3.666667,3.333333,
39720,290,2020-04-06 13:01:30,AR,27,Male,"College degree, bachelor, master",Some College or equivalent,Full time employed,United States,yes,Nevada,Other or would rather not say,2.0,Yes,Isolated,0.0,0.0,Program B,,No,2.0,2.0,5.0,5.0,2.0,5.0,5.0,2.0,5.0,5.0,5.0,2.0,5.0,,,,,,,,,,,,,,,,,,,,,,,,,,,,,,,,,,,,,,,,,,,,,,,,,,,,,,,,,,,,,,,,,,,,,,,,,,,,,,,,,,,,,,,,,,,,,,,3.4,4.0,,,,,,
39742,759,2020-04-05 13:06:32,EN,49,Female,"College degree, bachelor, master",Some College or equivalent,Not employed,United States,no,Tennessee,Married/cohabiting,3.0,Yes,Life carries on with minor changes,2.0,0.0,Program A,,No,2.0,5.0,3.0,5.0,4.0,1.0,5.0,4.0,1.0,1.0,1.0,1.0,1.0,8.0,9.0,5.0,5.0,7.0,4.0,9.0,1.0,5.0,5.0,5.0,6.0,6.0,1.0,5.0,4.0,6.0,1.0,2.0,5.0,3.0,2.0,4.0,5.0,5.0,1.0,3.0,4.0,2.0,5.0,5.0,5.0,3.0,3.0,5.0,2.0,1.0,1.0,1.0,3.0,2.0,2.0,1.0,1.0,5.0,1.0,4.0,4.0,5.0,2.0,1.0,2.0,1.0,1.0,1.0,2.0,1.0,5.0,4.0,,6.0,6.0,6.0,6.0,6.0,6.0,6.0,6.0,6.0,6.0,3.0,5.0,6.0,4.0,4.0,2.0,1.0,1.0,4.0,5.0,4.0,2.0,2.0,5.0,4.0,2.0,,1.0,6.0,3.0,2.0,1.0,4.0,,1.9,1.0,2.666667,5.333333,3.0,4.0,4.0,6.0
39767,1074,2020-04-05 13:08:17,EN,55,Female,"College degree, bachelor, master",Some College or equivalent,Not employed,United States,no,Virginia,Married/cohabiting,1.0,Yes,Isolated,3.0,0.0,Program A,,Yes,4.0,3.0,5.0,4.0,2.0,2.0,3.0,3.0,3.0,3.0,1.0,2.0,4.0,4.0,8.0,0.0,5.0,9.0,2.0,10.0,0.0,6.0,6.0,6.0,6.0,6.0,0.0,6.0,6.0,6.0,2.0,5.0,6.0,5.0,4.0,3.0,6.0,6.0,1.0,3.0,5.0,1.0,1.0,4.0,6.0,5.0,3.0,6.0,6.0,99.0,1.0,6.0,6.0,4.0,1.0,5.0,99.0,6.0,4.0,5.0,6.0,6.0,99.0,3.0,4.0,4.0,5.0,5.0,5.0,2.0,5.0,5.0,,5.0,5.0,5.0,6.0,6.0,4.0,6.0,6.0,4.0,4.0,1.0,1.0,6.0,1.0,3.0,6.0,1.0,1.0,5.0,1.0,2.0,3.0,1.0,6.0,1.0,2.0,,1.0,5.0,6.0,3.0,6.0,4.0,,3.2,2.333333,4.333333,6.0,3.0,5.333333,5.0,5.1
39813,726,2020-04-06 12:55:22,EN,59,Female,"College degree, bachelor, master",College degree,Part time employed,United States,no,Virginia,Married/cohabiting,0.0,Yes,Isolated,3.0,0.0,,Program C,No,1.0,1.0,2.0,5.0,4.0,1.0,5.0,5.0,2.0,1.0,1.0,3.0,2.0,3.0,8.0,7.0,7.0,7.0,4.0,7.0,4.0,4.0,4.0,4.0,5.0,6.0,4.0,6.0,6.0,6.0,2.0,4.0,4.0,3.0,4.0,5.0,5.0,5.0,3.0,5.0,6.0,5.0,2.0,6.0,6.0,3.0,3.0,5.0,2.0,2.0,1.0,2.0,2.0,3.0,2.0,2.0,1.0,5.0,2.0,5.0,5.0,4.0,4.0,,1.0,2.0,2.0,2.0,2.0,2.0,3.0,3.0,,6.0,5.0,6.0,6.0,6.0,6.0,6.0,6.0,6.0,6.0,5.0,5.0,5.0,4.0,5.0,5.0,1.0,1.0,5.0,5.0,2.0,4.0,4.0,4.0,6.0,5.0,,4.0,2.0,4.0,5.0,3.0,2.0,,1.3,2.0,3.0,4.666667,5.333333,5.666667,4.0,5.9
39814,1216,2020-04-05 13:03:05,EN,56,Female,"College degree, bachelor, master",Up to 12 years of school,Full time employed,United States,no,Oregon,Married/cohabiting,0.0,No,Isolated,1.0,0.0,,Program D,No,4.0,2.0,4.0,4.0,2.0,1.0,2.0,3.0,3.0,2.0,4.0,2.0,4.0,7.0,9.0,3.0,7.0,9.0,7.0,10.0,1.0,3.0,4.0,3.0,5.0,5.0,0.0,6.0,6.0,6.0,1.0,3.0,2.0,2.0,1.0,5.0,4.0,3.0,5.0,2.0,5.0,2.0,1.0,5.0,6.0,3.0,4.0,6.0,1.0,1.0,99.0,1.0,4.0,4.0,2.0,6.0,99.0,5.0,3.0,3.0,2.0,3.0,4.0,2.0,1.0,4.0,5.0,3.0,1.0,1.0,3.0,2.0,,3.0,4.0,2.0,4.0,5.0,5.0,5.0,5.0,5.0,2.0,6.0,1.0,5.0,1.0,4.0,4.0,1.0,1.0,5.0,3.0,5.0,5.0,5.0,2.0,1.0,4.0,,3.0,4.0,5.0,3.0,5.0,6.0,,2.9,3.333333,1.666667,3.0,3.0,5.666667,4.0,4.0
39835,683,2020-04-05 12:50:34,EN,48,Female,"College degree, bachelor, master",Up to 12 years of school,Part time employed,United States,no,Virginia,Married/cohabiting,2.0,Yes,Life carries on with minor changes,1.0,0.0,,Program D,No,3.0,3.0,5.0,4.0,3.0,2.0,3.0,2.0,5.0,3.0,1.0,2.0,2.0,5.0,7.0,1.0,3.0,4.0,5.0,6.0,1.0,5.0,6.0,6.0,6.0,6.0,2.0,5.0,5.0,6.0,2.0,3.0,6.0,5.0,4.0,3.0,5.0,4.0,3.0,3.0,6.0,3.0,4.0,3.0,4.0,5.0,4.0,5.0,2.0,4.0,1.0,3.0,5.0,2.0,4.0,1.0,99.0,6.0,5.0,6.0,6.0,6.0,1.0,2.0,4.0,2.0,1.0,4.0,4.0,1.0,5.0,1.0,,6.0,6.0,6.0,6.0,6.0,6.0,6.0,6.0,6.0,6.0,1.0,6.0,6.0,3.0,4.0,5.0,,4.0,6.0,3.0,4.0,3.0,2.0,4.0,2.0,5.0,,4.0,6.0,6.0,5.0,6.0,2.0,,3.3,1.666667,4.333333,4.333333,4.0,3.333333,4.333333,6.0
39839,713,2020-04-06 12:50:27,EN,64,Female,"College degree, bachelor, master",Up to 12 years of school,Retired,United States,no,Montana,Married/cohabiting,1.0,Yes,Life carries on with minor changes,2.0,0.0,Program A,,No,3.0,2.0,2.0,5.0,4.0,1.0,4.0,4.0,3.0,1.0,1.0,1.0,1.0,5.0,8.0,5.0,8.0,9.0,2.0,7.0,1.0,5.0,6.0,6.0,6.0,6.0,,5.0,5.0,6.0,1.0,2.0,4.0,4.0,2.0,5.0,3.0,2.0,5.0,4.0,5.0,4.0,2.0,5.0,5.0,4.0,4.0,4.0,,,,,,,,,,,,,,,,,,,,,,,,,,,,,,,,,,,,,,,,,,,,,,,,,,,,,,,,,,,,1.9,1.0,2.666667,2.333333,4.333333,5.0,3.666667,
39847,195,2020-04-06 12:39:53,EN,41,Female,PhD/Doctorate,College degree,Retired,United States,no,Mn,Married/cohabiting,2.0,Yes,Life carries on with minor changes,1.0,2.0,,Program D,,,,,,,,,,,,,,,,,,,,,,,,,,,,,,,,,,,,,,,,,,,,,,,,,,,,,,,,,,,,,,,,,,,,,,,,,,,,,,,,,,,,,,,,,,,,,,,,,,,,,,,,,,,,,,,,,,,,
39856,1284,2020-04-05 12:56:11,EN,67,Male,"College degree, bachelor, master",Up to 9 years of school,Retired,United States,no,Virginia,Married/cohabiting,0.0,Yes,Life carries on with minor changes,1.0,0.0,Program A,,No,2.0,1.0,2.0,5.0,4.0,1.0,5.0,5.0,3.0,1.0,1.0,2.0,3.0,7.0,9.0,0.0,6.0,10.0,8.0,7.0,1.0,6.0,6.0,6.0,5.0,5.0,1.0,5.0,6.0,6.0,1.0,5.0,1.0,4.0,2.0,5.0,5.0,3.0,4.0,4.0,2.0,2.0,5.0,4.0,3.0,4.0,5.0,5.0,99.0,99.0,99.0,99.0,6.0,2.0,1.0,4.0,99.0,2.0,3.0,6.0,5.0,5.0,99.0,1.0,2.0,2.0,2.0,2.0,2.0,2.0,5.0,1.0,,6.0,5.0,5.0,5.0,6.0,4.0,6.0,5.0,4.0,6.0,1.0,5.0,6.0,2.0,5.0,6.0,1.0,1.0,5.0,2.0,1.0,4.0,1.0,4.0,1.0,2.0,,1.0,5.0,5.0,4.0,4.0,4.0,,1.5,2.0,2.666667,3.666667,2.666667,3.0,3.666667,5.2
39876,1460,2020-04-05 12:54:59,EN,58,Female,"College degree, bachelor, master",College degree,Full time employed,United States,no,Virginia,Married/cohabiting,1.0,Yes,Isolated,3.0,0.0,Program A,,No,,,3.0,4.0,3.0,3.0,,,3.0,,4.0,2.0,4.0,6.0,7.0,4.0,6.0,8.0,8.0,4.0,,6.0,6.0,,6.0,6.0,0.0,5.0,6.0,6.0,2.0,4.0,3.0,5.0,3.0,4.0,6.0,6.0,1.0,6.0,6.0,6.0,,5.0,6.0,4.0,,5.0,4.0,,99.0,4.0,4.0,4.0,3.0,,99.0,,,,6.0,6.0,1.0,4.0,1.0,,,,3.0,2.0,4.0,1.0,Worry that officials are not forthcoming such as changing recommendations on face coverings. I wanted to trust and would have still kept masks for health care but now I dont trust the government or cdc to give me actual info. Also I am concerned for relatives in essential jobs including grocery and manufacturing,6.0,6.0,6.0,6.0,6.0,6.0,6.0,6.0,6.0,6.0,2.0,5.0,4.0,1.0,6.0,4.0,2.0,1.0,3.0,4.0,4.0,6.0,6.0,3.0,4.0,3.0,,4.0,6.0,6.0,4.0,2.0,2.0,"President Trumps constantly changing statements, his daily briefings on which he contradicts experts, governors, scientists and reporters are the worst part of my day. Im afraid not to watch in case important information is shared but his inconsistency and incorrect statements make me feel unsafe. I particular his attacks on the media trouble me because I trust journalists to want to tell the real story. That said, the irresponsible commentary on Fox News and on some radio shows (Rush) has clearly planted false info in my neighbors mind and they do not watch news from around the world or different viewpoints. Talking to them and hearing how their opinions are not based on science or public health is terrifying. I feel people speaking falsehoods about the pandemic should be help responsible. The president and some governors refusal to have comprehensive stay home orders is what keeps me up at night. They are risking the people I love",2.8,3.333333,3.666667,6.0,6.0,5.5,4.5,6.0
39918,1128,2020-04-05 12:42:22,EN,49,Female,"College degree, bachelor, master",Up to 12 years of school,Full time employed,United States,no,Virginia,Divorced/widowed,1.0,Yes,Isolated,3.0,0.0,Program A,,Not sure,4.0,4.0,5.0,3.0,2.0,4.0,3.0,2.0,4.0,4.0,4.0,2.0,2.0,4.0,8.0,2.0,3.0,5.0,1.0,5.0,,5.0,6.0,5.0,6.0,6.0,0.0,6.0,6.0,6.0,4.0,3.0,4.0,2.0,3.0,5.0,4.0,2.0,6.0,4.0,5.0,4.0,2.0,5.0,5.0,5.0,3.0,6.0,5.0,6.0,5.0,6.0,6.0,5.0,1.0,4.0,99.0,6.0,4.0,6.0,6.0,6.0,6.0,5.0,1.0,5.0,2.0,2.0,4.0,3.0,6.0,1.0,Emotional trauma of friends/family,6.0,5.0,5.0,5.0,5.0,6.0,6.0,6.0,6.0,6.0,3.0,4.0,6.0,4.0,5.0,2.0,1.0,1.0,5.0,5.0,2.0,3.0,4.0,6.0,1.0,3.0,,4.0,6.0,6.0,4.0,5.0,2.0,,3.9,2.666667,2.333333,2.333333,4.333333,5.0,5.0,5.6
39960,727,2020-04-05 12:29:15,EN,50,Female,"College degree, bachelor, master",Some College or equivalent,Not employed,United States,no,Virginia,Married/cohabiting,3.0,Yes,Life carries on with minor changes,,,Program A,,Yes,4.0,4.0,4.0,3.0,3.0,4.0,3.0,3.0,4.0,4.0,3.0,2.0,3.0,6.0,8.0,2.0,7.0,7.0,7.0,9.0,1.0,6.0,6.0,5.0,5.0,5.0,1.0,4.0,5.0,5.0,3.0,3.0,4.0,5.0,5.0,4.0,3.0,2.0,5.0,5.0,3.0,5.0,2.0,4.0,5.0,3.0,2.0,4.0,3.0,4.0,5.0,4.0,6.0,4.0,99.0,5.0,99.0,6.0,4.0,6.0,6.0,6.0,99.0,5.0,99.0,3.0,6.0,4.0,4.0,3.0,6.0,99.0,,5.0,5.0,4.0,4.0,5.0,5.0,4.0,5.0,4.0,5.0,3.0,3.0,4.0,1.0,2.0,4.0,2.0,1.0,2.0,5.0,4.0,3.0,5.0,4.0,1.0,3.0,,2.0,5.0,5.0,3.0,3.0,2.0,,3.6,2.666667,4.333333,2.333333,4.333333,4.666667,4.0,4.6
39970,571,2020-04-05 12:25:35,EN,49,Female,"College degree, bachelor, master",College degree,Full time employed,United States,no,Washington,Single,0.0,Yes,Isolated,0.0,0.0,Program A,,No,3.0,2.0,3.0,4.0,3.0,2.0,3.0,3.0,3.0,2.0,2.0,2.0,2.0,7.0,9.0,3.0,3.0,5.0,5.0,6.0,2.0,2.0,5.0,3.0,6.0,6.0,3.0,5.0,5.0,5.0,3.0,4.0,4.0,3.0,2.0,5.0,1.0,1.0,4.0,4.0,5.0,4.0,3.0,5.0,4.0,4.0,3.0,5.0,1.0,3.0,99.0,5.0,3.0,5.0,1.0,99.0,99.0,5.0,5.0,4.0,6.0,4.0,1.0,3.0,3.0,3.0,5.0,2.0,5.0,2.0,5.0,6.0,,5.0,5.0,5.0,5.0,5.0,5.0,5.0,5.0,4.0,5.0,3.0,1.0,4.0,1.0,4.0,4.0,4.0,2.0,4.0,5.0,4.0,3.0,4.0,4.0,1.0,4.0,,3.0,5.0,5.0,4.0,4.0,3.0,,2.6,2.0,2.333333,1.666667,4.333333,4.333333,4.333333,4.9
39974,172,2020-04-06 12:18:39,EN,52,Female,"College degree, bachelor, master",Some College or equivalent,Self-employed,United States,no,Virginia,Single,0.0,Yes,Isolated,0.0,0.0,,Program C,,,,,,,,,,,,,,,,,,,,,,,,,,,,,,,,,,,,,,,,,,,,,,,,,,,,,,,,,,,,,,,,,,,,,,,,,,,,,,,,,,,,,,,,,,,,,,,,,,,,,,,,,,,,,,,,,,,,
39975,642,2020-04-05 12:26:26,EN,49,Male,"College degree, bachelor, master",College degree,Full time employed,United States,no,Wisconsin,Married/cohabiting,3.0,No,Life carries on with minor changes,,,,Program D,No,2.0,3.0,3.0,5.0,4.0,1.0,5.0,5.0,1.0,1.0,3.0,1.0,3.0,8.0,9.0,3.0,8.0,8.0,8.0,9.0,1.0,1.0,3.0,3.0,5.0,5.0,0.0,5.0,4.0,4.0,2.0,4.0,3.0,2.0,2.0,6.0,4.0,5.0,4.0,4.0,6.0,4.0,1.0,5.0,6.0,5.0,4.0,5.0,2.0,2.0,3.0,99.0,2.0,2.0,2.0,2.0,99.0,2.0,2.0,2.0,2.0,3.0,2.0,2.0,3.0,2.0,4.0,2.0,2.0,2.0,4.0,2.0,,6.0,6.0,6.0,5.0,6.0,6.0,6.0,6.0,6.0,6.0,2.0,5.0,5.0,5.0,5.0,4.0,5.0,5.0,5.0,4.0,5.0,5.0,4.0,5.0,4.0,2.0,,3.0,5.0,3.0,3.0,4.0,1.0,,1.6,2.333333,1.666667,4.0,4.666667,5.666667,4.333333,5.9
39992,949,2020-04-05 12:28:47,EN,41,Male,"College degree, bachelor, master",College degree,Full time employed,United States,no,Oregon,Married/cohabiting,2.0,Yes,Life carries on with minor changes,1.0,1.0,,,,2.0,4.0,2.0,5.0,2.0,2.0,5.0,4.0,2.0,2.0,2.0,3.0,3.0,5.0,7.0,4.0,7.0,7.0,5.0,7.0,2.0,3.0,4.0,3.0,4.0,5.0,2.0,5.0,5.0,4.0,2.0,3.0,4.0,5.0,3.0,5.0,6.0,5.0,2.0,4.0,3.0,3.0,2.0,5.0,5.0,5.0,4.0,5.0,4.0,2.0,2.0,3.0,2.0,4.0,2.0,2.0,2.0,5.0,2.0,2.0,2.0,4.0,2.0,2.0,4.0,2.0,4.0,3.0,3.0,2.0,4.0,3.0,,6.0,5.0,5.0,5.0,5.0,4.0,5.0,5.0,4.0,5.0,2.0,5.0,3.0,3.0,3.0,4.0,1.0,2.0,4.0,3.0,3.0,4.0,2.0,4.0,3.0,2.0,,4.0,5.0,4.0,2.0,4.0,2.0,,2.2,2.666667,3.333333,5.333333,3.333333,5.0,4.333333,4.9
39996,1361,2020-04-05 12:35:10,EN,57,Female,"Some College, short continuing education or equivalent",College degree,Part time employed,United States,no,Oregon,Single,0.0,Yes,Life carries on with minor changes,3.0,0.0,Program B,,No,3.0,3.0,4.0,4.0,2.0,3.0,3.0,3.0,3.0,3.0,5.0,5.0,5.0,5.0,8.0,3.0,6.0,6.0,7.0,7.0,5.0,5.0,6.0,6.0,5.0,4.0,0.0,5.0,4.0,4.0,3.0,2.0,2.0,5.0,5.0,5.0,5.0,4.0,2.0,4.0,5.0,3.0,4.0,5.0,6.0,3.0,2.0,6.0,2.0,99.0,99.0,99.0,4.0,6.0,2.0,2.0,99.0,5.0,2.0,5.0,6.0,3.0,2.0,2.0,2.0,5.0,2.0,3.0,3.0,2.0,5.0,2.0,I work in a hospital. So I am still working,5.0,5.0,5.0,5.0,5.0,4.0,4.0,5.0,4.0,5.0,4.0,4.0,5.0,5.0,5.0,4.0,1.0,1.0,3.0,6.0,5.0,5.0,5.0,5.0,4.0,5.0,,6.0,6.0,2.0,6.0,6.0,3.0,we Need to manufacture more in the United States,3.1,5.0,4.0,4.666667,4.0,4.666667,4.666667,4.7
40024,538,2020-04-06 12:16:35,ZH-T,27,Female,PhD/Doctorate,Up to 9 years of school,Student,United States,yes,Arizona,Single,0.0,Yes,Isolated,1.0,0.0,Program A,,Yes,5.0,5.0,5.0,4.0,2.0,4.0,2.0,2.0,4.0,4.0,2.0,5.0,4.0,2.0,7.0,8.0,7.0,7.0,9.0,0.0,9.0,5.0,4.0,4.0,5.0,5.0,5.0,6.0,6.0,6.0,6.0,6.0,5.0,6.0,6.0,4.0,5.0,4.0,2.0,5.0,5.0,6.0,1.0,6.0,6.0,5.0,5.0,6.0,99.0,5.0,99.0,6.0,1.0,6.0,1.0,2.0,99.0,6.0,4.0,5.0,5.0,5.0,4.0,4.0,4.0,4.0,5.0,4.0,6.0,2.0,6.0,1.0,,,,,,,,,,,,,,,,,,,,,,,,,,,,,,,,,,,,4.1,3.666667,5.0,4.666667,5.333333,6.0,4.333333,
40072,918,2020-04-05 12:13:54,EN,50,Female,"College degree, bachelor, master",College degree,Not employed,United States,no,Virginia,Married/cohabiting,2.0,No,Isolated,3.0,0.0,,Program D,No,3.0,3.0,5.0,3.0,3.0,3.0,4.0,3.0,4.0,2.0,1.0,1.0,2.0,3.0,4.0,2.0,3.0,4.0,2.0,3.0,1.0,6.0,6.0,6.0,6.0,6.0,0.0,5.0,5.0,6.0,4.0,2.0,2.0,5.0,5.0,3.0,4.0,2.0,4.0,5.0,5.0,5.0,4.0,5.0,5.0,5.0,3.0,5.0,2.0,99.0,6.0,5.0,5.0,5.0,1.0,4.0,99.0,6.0,4.0,5.0,5.0,5.0,99.0,3.0,2.0,4.0,4.0,3.0,4.0,2.0,6.0,2.0,,5.0,5.0,4.0,6.0,5.0,5.0,5.0,5.0,5.0,5.0,2.0,4.0,4.0,6.0,1.0,5.0,2.0,2.0,5.0,5.0,4.0,4.0,4.0,5.0,1.0,2.0,,3.0,5.0,5.0,2.0,4.0,3.0,Lack of access to routine healthcare (which is discouraged/inaccessible right now) is a difficulty,3.1,1.333333,4.666667,3.0,5.0,4.333333,4.666667,5.0
40161,716,2020-04-05 11:53:36,EN,51,Female,"College degree, bachelor, master",Some College or equivalent,Full time employed,United States,no,Oregon,Married/cohabiting,2.0,Yes,Isolated,1.0,0.0,,Program C,No,1.0,1.0,3.0,5.0,5.0,3.0,4.0,5.0,4.0,3.0,1.0,1.0,2.0,6.0,8.0,1.0,3.0,3.0,3.0,9.0,1.0,4.0,4.0,5.0,6.0,6.0,0.0,6.0,6.0,6.0,1.0,2.0,4.0,4.0,2.0,6.0,5.0,5.0,3.0,6.0,6.0,4.0,2.0,5.0,6.0,4.0,3.0,6.0,1.0,4.0,1.0,2.0,2.0,3.0,99.0,1.0,99.0,5.0,4.0,5.0,4.0,2.0,2.0,2.0,2.0,1.0,2.0,1.0,1.0,1.0,1.0,1.0,,5.0,6.0,5.0,6.0,6.0,6.0,6.0,6.0,6.0,6.0,5.0,5.0,3.0,2.0,4.0,6.0,1.0,1.0,4.0,4.0,2.0,5.0,4.0,5.0,1.0,5.0,,1.0,4.0,5.0,2.0,5.0,4.0,,2.0,1.333333,2.333333,4.666667,5.333333,5.333333,4.666667,5.8
40172,2618,2020-04-05 12:23:32,EN,36,Female,"Some College, short continuing education or equivalent",Some College or equivalent,Full time employed,United States,no,Florida,Single,0.0,Yes,Isolated,0.0,0.0,Program A,,No,3.0,3.0,4.0,4.0,1.0,2.0,3.0,3.0,5.0,3.0,2.0,2.0,2.0,3.0,5.0,0.0,0.0,2.0,1.0,5.0,0.0,3.0,6.0,6.0,6.0,6.0,0.0,5.0,5.0,5.0,1.0,3.0,6.0,4.0,2.0,5.0,3.0,1.0,6.0,5.0,5.0,5.0,4.0,2.0,3.0,5.0,4.0,4.0,4.0,5.0,99.0,5.0,4.0,1.0,99.0,99.0,99.0,5.0,3.0,6.0,6.0,6.0,4.0,1.0,3.0,1.0,2.0,1.0,2.0,2.0,4.0,99.0,"Providing emotional support for family, friends and co-workers who are less comfortable with long-term isolation| strongly agree that I am distressed over it",1.0,6.0,5.0,2.0,3.0,4.0,4.0,4.0,4.0,1.0,1.0,1.0,4.0,1.0,2.0,4.0,5.0,5.0,4.0,6.0,3.0,1.0,4.0,5.0,1.0,2.0,Pets| strong agree,1.0,4.0,5.0,3.0,2.0,2.0,,3.3,2.0,2.666667,1.666667,5.0,2.666667,4.0,3.4
40188,1450,2020-04-05 12:02:23,SME,46,Male,PhD/Doctorate,PhD/Doctorate,Full time employed,United States,yes,Connecticut,Married/cohabiting,2.0,Yes,Life carries on with minor changes,1.0,2.0,,Program C,No,3.0,2.0,3.0,4.0,4.0,2.0,4.0,4.0,3.0,3.0,3.0,3.0,3.0,2.0,8.0,3.0,3.0,3.0,1.0,5.0,2.0,4.0,4.0,4.0,5.0,5.0,2.0,5.0,5.0,5.0,2.0,3.0,1.0,4.0,4.0,5.0,4.0,5.0,3.0,6.0,6.0,5.0,4.0,3.0,5.0,5.0,2.0,5.0,3.0,6.0,6.0,5.0,4.0,4.0,4.0,5.0,5.0,6.0,5.0,4.0,4.0,5.0,5.0,5.0,1.0,4.0,5.0,2.0,4.0,2.0,5.0,6.0,,4.0,5.0,3.0,4.0,5.0,6.0,5.0,1.0,6.0,3.0,2.0,4.0,5.0,1.0,3.0,2.0,4.0,4.0,2.0,2.0,3.0,3.0,5.0,4.0,1.0,4.0,,4.0,4.0,4.0,4.0,4.0,4.0,,2.4,3.0,3.333333,4.333333,5.666667,3.666667,5.0,4.2
40201,17995,2020-04-05 16:36:18,EN,36,Male,PhD/Doctorate,,Full time employed,United States,yes,Oregon,Married/cohabiting,3.0,Yes,Isolated,1.0,2.0,Program A,,No,3.0,3.0,3.0,4.0,3.0,1.0,3.0,3.0,1.0,1.0,3.0,1.0,4.0,5.0,10.0,6.0,8.0,10.0,10.0,10.0,6.0,6.0,5.0,4.0,6.0,6.0,5.0,6.0,6.0,6.0,2.0,5.0,4.0,1.0,4.0,5.0,4.0,4.0,4.0,6.0,3.0,3.0,3.0,6.0,5.0,6.0,4.0,6.0,99.0,5.0,4.0,6.0,4.0,6.0,1.0,4.0,6.0,6.0,4.0,5.0,5.0,6.0,6.0,5.0,4.0,5.0,6.0,99.0,5.0,1.0,5.0,6.0,Mother,6.0,6.0,6.0,5.0,2.0,6.0,6.0,6.0,6.0,6.0,5.0,4.0,6.0,5.0,6.0,6.0,1.0,1.0,5.0,5.0,5.0,6.0,6.0,4.0,1.0,6.0,Gardening,5.0,6.0,6.0,4.0,2.0,3.0,How Inget the job through online interviews.,2.3,2.666667,2.333333,3.666667,4.0,5.0,5.0,5.5
40213,857,2020-04-05 11:48:02,EN,36,Female,PhD/Doctorate,PhD/Doctorate,Full time employed,United States,no,Oregon,Married/cohabiting,3.0,No,Life carries on with minor changes,2.0,3.0,Program A,,No,2.0,2.0,3.0,4.0,3.0,2.0,4.0,4.0,2.0,2.0,2.0,2.0,3.0,7.0,9.0,3.0,5.0,6.0,6.0,10.0,4.0,5.0,6.0,6.0,6.0,6.0,0.0,5.0,6.0,6.0,2.0,5.0,4.0,3.0,2.0,5.0,5.0,5.0,3.0,4.0,5.0,2.0,4.0,5.0,5.0,4.0,3.0,5.0,4.0,5.0,99.0,4.0,6.0,3.0,99.0,99.0,3.0,5.0,5.0,5.0,5.0,4.0,6.0,99.0,5.0,4.0,3.0,4.0,4.0,4.0,5.0,4.0,,6.0,6.0,6.0,6.0,6.0,6.0,6.0,6.0,6.0,6.0,3.0,4.0,4.0,4.0,5.0,4.0,4.0,5.0,5.0,4.0,3.0,5.0,4.0,5.0,2.0,4.0,,6.0,6.0,6.0,6.0,6.0,5.0,,2.2,2.333333,2.333333,4.666667,3.666667,4.333333,4.333333,6.0
40238,1151,2020-04-05 11:46:36,EN,70,Female,"College degree, bachelor, master",College degree,Self-employed,United States,no,Texas,Married/cohabiting,0.0,Not sure,Life carries on with minor changes,1.0,0.0,,Program D,No,2.0,3.0,3.0,4.0,3.0,2.0,4.0,4.0,3.0,2.0,1.0,3.0,3.0,8.0,10.0,5.0,5.0,5.0,5.0,8.0,8.0,1.0,1.0,1.0,1.0,1.0,5.0,1.0,1.0,5.0,4.0,1.0,3.0,5.0,4.0,5.0,5.0,1.0,5.0,6.0,6.0,6.0,2.0,6.0,5.0,5.0,1.0,,6.0,2.0,99.0,6.0,3.0,4.0,4.0,2.0,99.0,6.0,4.0,6.0,5.0,6.0,2.0,1.0,2.0,2.0,6.0,4.0,2.0,2.0,6.0,6.0,What is the true intent of this survey.,6.0,5.0,5.0,5.0,6.0,6.0,5.0,6.0,6.0,5.0,5.0,5.0,5.0,5.0,5.0,5.0,5.0,5.0,4.0,5.0,5.0,5.0,5.0,6.0,5.0,5.0,who is behind this survey?,5.0,2.0,4.0,4.0,3.0,2.0,The alternative news entities and whether their reporting is credible or not?,2.4,2.333333,3.666667,2.666667,6.0,5.333333,5.5,5.5
40252,877,2020-04-05 11:39:39,EN,59,Female,"College degree, bachelor, master",College degree,Full time employed,United States,no,Arlington VA,Married/cohabiting,1.0,Yes,Isolated,2.0,0.0,Program A,,No,4.0,4.0,5.0,4.0,3.0,1.0,4.0,4.0,3.0,3.0,4.0,5.0,4.0,8.0,9.0,1.0,7.0,8.0,8.0,10.0,1.0,6.0,6.0,6.0,6.0,6.0,1.0,6.0,5.0,5.0,4.0,4.0,1.0,5.0,2.0,4.0,6.0,6.0,2.0,6.0,6.0,6.0,3.0,4.0,5.0,4.0,4.0,5.0,4.0,4.0,5.0,5.0,3.0,5.0,6.0,4.0,99.0,6.0,4.0,6.0,6.0,6.0,5.0,6.0,2.0,6.0,6.0,3.0,4.0,1.0,6.0,4.0,,4.0,5.0,5.0,4.0,5.0,5.0,5.0,6.0,5.0,5.0,1.0,4.0,5.0,4.0,4.0,6.0,4.0,1.0,2.0,6.0,4.0,2.0,2.0,3.0,4.0,4.0,,2.0,4.0,4.0,4.0,4.0,4.0,My 80 year old mother a retired nurse is thinking about volunteering at the hospital.,2.9,4.333333,3.333333,5.666667,6.0,4.333333,4.0,4.9
40268,1080,2020-04-05 11:40:51,EN,72,Female,"Some College, short continuing education or equivalent",College degree,Retired,United States,no,Florida,Single,0.0,Yes,Isolated,0.0,0.0,Program A,,No,3.0,3.0,4.0,3.0,3.0,2.0,3.0,4.0,4.0,3.0,4.0,3.0,5.0,4.0,8.0,0.0,5.0,0.0,5.0,8.0,,6.0,6.0,6.0,6.0,6.0,1.0,6.0,5.0,6.0,6.0,4.0,6.0,4.0,2.0,5.0,5.0,5.0,3.0,5.0,4.0,6.0,2.0,5.0,5.0,5.0,3.0,5.0,99.0,2.0,99.0,6.0,6.0,6.0,4.0,99.0,99.0,6.0,6.0,6.0,6.0,6.0,99.0,4.0,4.0,6.0,6.0,6.0,4.0,2.0,2.0,2.0,,5.0,4.0,2.0,4.0,3.0,4.0,3.0,4.0,3.0,3.0,1.0,5.0,5.0,2.0,5.0,5.0,1.0,2.0,5.0,2.0,5.0,5.0,4.0,4.0,4.0,2.0,,1.0,6.0,4.0,4.0,6.0,5.0,,3.0,4.0,2.666667,4.666667,5.0,5.0,4.666667,3.5
40289,954,2020-04-05 11:34:35,EN,48,Male,"College degree, bachelor, master",College degree,Full time employed,United States,no,OR,Married/cohabiting,2.0,Yes,Life carries on with minor changes,1.0,0.0,,Program D,Yes,3.0,3.0,4.0,3.0,2.0,3.0,3.0,2.0,4.0,2.0,2.0,3.0,3.0,6.0,6.0,4.0,7.0,8.0,4.0,7.0,3.0,3.0,4.0,4.0,5.0,4.0,2.0,6.0,3.0,4.0,4.0,2.0,3.0,4.0,3.0,2.0,4.0,2.0,5.0,5.0,4.0,3.0,4.0,4.0,5.0,3.0,3.0,5.0,2.0,4.0,3.0,99.0,2.0,3.0,1.0,5.0,99.0,4.0,2.0,3.0,3.0,4.0,4.0,4.0,4.0,3.0,5.0,4.0,2.0,2.0,6.0,4.0,,3.0,4.0,3.0,5.0,3.0,4.0,4.0,5.0,4.0,5.0,1.0,3.0,4.0,4.0,4.0,2.0,4.0,3.0,3.0,3.0,3.0,3.0,5.0,4.0,1.0,2.0,,4.0,5.0,5.0,3.0,5.0,2.0,,3.3,2.666667,4.0,2.666667,4.0,4.0,4.0,4.0
40296,880,2020-04-05 11:31:44,EN,60,Female,"College degree, bachelor, master",Up to 12 years of school,Full time employed,United States,no,Texas,Married/cohabiting,1.0,Yes,Life carries on with minor changes,1.0,0.0,Program B,,Not sure,2.0,2.0,2.0,3.0,3.0,2.0,4.0,3.0,2.0,2.0,1.0,2.0,3.0,8.0,10.0,8.0,8.0,9.0,9.0,10.0,7.0,5.0,5.0,5.0,6.0,6.0,4.0,6.0,6.0,6.0,1.0,5.0,2.0,2.0,2.0,5.0,5.0,4.0,4.0,5.0,6.0,5.0,2.0,5.0,5.0,5.0,3.0,6.0,2.0,2.0,99.0,1.0,1.0,2.0,1.0,2.0,99.0,5.0,1.0,3.0,4.0,3.0,3.0,1.0,1.0,1.0,1.0,1.0,1.0,1.0,2.0,2.0,I worry about my students and their incomes.,6.0,6.0,6.0,6.0,6.0,6.0,6.0,6.0,6.0,6.0,4.0,5.0,5.0,5.0,5.0,5.0,1.0,1.0,5.0,5.0,5.0,4.0,5.0,6.0,4.0,5.0,my pets are also helpful in managing to be happy.,4.0,5.0,4.0,3.0,3.0,5.0,,2.3,2.0,2.0,4.0,5.333333,5.0,5.0,6.0
40544,3452,2020-04-05 11:29:35,ZH-T,35,Female,PhD/Doctorate,Some College or equivalent,Not employed,United States,yes,Washington state,Married/cohabiting,0.0,No,Life carries on with minor changes,1.0,0.0,,Program C,,1.0,2.0,1.0,4.0,4.0,2.0,4.0,4.0,2.0,1.0,1.0,1.0,1.0,7.0,9.0,7.0,7.0,7.0,8.0,8.0,8.0,5.0,5.0,5.0,4.0,4.0,8.0,6.0,6.0,6.0,2.0,5.0,6.0,2.0,4.0,5.0,5.0,5.0,4.0,3.0,5.0,5.0,4.0,5.0,5.0,4.0,2.0,5.0,99.0,99.0,99.0,2.0,2.0,1.0,99.0,1.0,99.0,4.0,4.0,6.0,6.0,6.0,2.0,2.0,2.0,2.0,1.0,2.0,5.0,2.0,2.0,2.0,,6.0,5.0,5.0,6.0,5.0,5.0,5.0,5.0,4.0,5.0,5.0,6.0,6.0,2.0,4.0,4.0,2.0,2.0,4.0,5.0,4.0,6.0,5.0,5.0,2.0,6.0,,6.0,6.0,6.0,2.0,4.0,5.0,,1.7,1.0,2.666667,4.333333,4.333333,4.333333,4.666667,5.1
40615,535,2020-04-05 10:28:55,ZH-T,20,Female,"College degree, bachelor, master",College degree,Student,United States,no,<U+52A0><U+5DDE>,Single,0.0,Yes,Life carries on with minor changes,,,Program B,,Yes,2.0,2.0,3.0,4.0,4.0,3.0,4.0,4.0,1.0,2.0,1.0,1.0,1.0,5.0,7.0,2.0,2.0,2.0,0.0,1.0,1.0,4.0,5.0,5.0,6.0,6.0,0.0,4.0,4.0,4.0,4.0,1.0,4.0,4.0,5.0,4.0,4.0,4.0,3.0,4.0,5.0,4.0,2.0,4.0,4.0,4.0,3.0,5.0,4.0,5.0,99.0,5.0,6.0,4.0,2.0,3.0,99.0,5.0,6.0,5.0,2.0,6.0,5.0,6.0,6.0,3.0,4.0,4.0,6.0,5.0,5.0,6.0,,4.0,6.0,6.0,6.0,6.0,5.0,5.0,6.0,4.0,6.0,1.0,5.0,6.0,4.0,3.0,6.0,1.0,,5.0,5.0,3.0,2.0,5.0,6.0,6.0,2.0,,1.0,5.0,6.0,2.0,6.0,1.0,,2.1,1.0,4.0,4.0,4.333333,4.333333,4.333333,5.4
40665,1000,2020-04-05 10:28:01,EN,68,Female,"College degree, bachelor, master",College degree,Retired,United States,no,Maine,Single,0.0,Yes,Isolated,2.0,0.0,,Program D,No,2.0,4.0,1.0,4.0,2.0,1.0,2.0,3.0,1.0,1.0,1.0,,4.0,6.0,9.0,2.0,5.0,8.0,8.0,6.0,0.0,2.0,4.0,4.0,5.0,5.0,0.0,1.0,5.0,6.0,3.0,1.0,1.0,4.0,2.0,4.0,4.0,4.0,4.0,4.0,5.0,5.0,1.0,5.0,5.0,4.0,1.0,4.0,99.0,99.0,5.0,99.0,2.0,99.0,2.0,99.0,99.0,1.0,2.0,5.0,99.0,3.0,1.0,4.0,2.0,1.0,6.0,99.0,5.0,1.0,99.0,4.0,,5.0,4.0,4.0,4.0,5.0,4.0,5.0,4.0,4.0,5.0,1.0,4.0,3.0,3.0,4.0,4.0,1.0,1.0,4.0,4.0,2.0,3.0,4.0,4.0,1.0,4.0,,1.0,4.0,2.0,4.0,4.0,2.0,,2.3,2.5,3.0,3.666667,4.666667,5.333333,4.666667,4.4
40683,1360,2020-04-05 10:31:46,SME,81,Male,PhD/Doctorate,College degree,Self-employed,United States,no,California,Married/cohabiting,0.0,Yes,Isolated,1.0,0.0,,Program C,No,3.0,3.0,1.0,5.0,4.0,1.0,5.0,5.0,1.0,1.0,2.0,1.0,2.0,9.0,10.0,3.0,10.0,8.0,0.0,10.0,,6.0,6.0,6.0,6.0,6.0,0.0,5.0,6.0,6.0,2.0,5.0,5.0,5.0,2.0,5.0,4.0,5.0,5.0,5.0,5.0,5.0,1.0,5.0,5.0,6.0,1.0,5.0,1.0,1.0,99.0,1.0,1.0,4.0,1.0,1.0,1.0,5.0,2.0,5.0,5.0,6.0,1.0,1.0,1.0,1.0,5.0,5.0,6.0,2.0,5.0,6.0,,6.0,6.0,6.0,6.0,6.0,6.0,6.0,6.0,6.0,6.0,3.0,6.0,6.0,5.0,6.0,6.0,1.0,1.0,6.0,5.0,2.0,3.0,6.0,6.0,1.0,2.0,,2.0,2.0,2.0,2.0,5.0,2.0,,1.5,1.666667,3.0,3.666667,5.0,5.333333,5.666667,6.0
40867,826,2020-04-05 09:54:04,ZH-T,37,Female,PhD/Doctorate,Up to 12 years of school,Student,United States,yes,Texas,Single,0.0,No,Life carries on with minor changes,,,,Program C,No,2.0,2.0,3.0,3.0,2.0,3.0,2.0,3.0,1.0,3.0,3.0,1.0,2.0,7.0,8.0,5.0,5.0,5.0,2.0,1.0,3.0,4.0,4.0,4.0,6.0,5.0,2.0,5.0,6.0,6.0,2.0,4.0,6.0,3.0,3.0,5.0,4.0,4.0,3.0,4.0,4.0,4.0,4.0,5.0,6.0,4.0,4.0,4.0,3.0,4.0,99.0,5.0,2.0,4.0,99.0,4.0,99.0,4.0,5.0,5.0,99.0,6.0,3.0,4.0,5.0,5.0,2.0,5.0,5.0,3.0,5.0,5.0,,4.0,4.0,2.0,3.0,4.0,2.0,4.0,2.0,2.0,4.0,2.0,5.0,5.0,5.0,5.0,1.0,5.0,3.0,5.0,5.0,4.0,4.0,6.0,5.0,2.0,4.0,,2.0,5.0,5.0,2.0,4.0,2.0,,2.8,2.0,2.666667,4.0,4.0,4.666667,3.666667,3.1
40938,958,2020-04-05 09:46:05,EN,58,Female,PhD/Doctorate,Up to 12 years of school,Full time employed,United States,no,Massachusetts,Single,0.0,Yes,Isolated,0.0,0.0,,Program D,No,2.0,4.0,4.0,3.0,2.0,3.0,3.0,2.0,3.0,2.0,4.0,3.0,4.0,6.0,9.0,1.0,5.0,7.0,8.0,8.0,1.0,5.0,5.0,5.0,6.0,6.0,0.0,5.0,6.0,6.0,2.0,4.0,2.0,5.0,4.0,4.0,4.0,1.0,5.0,5.0,5.0,5.0,3.0,5.0,5.0,5.0,3.0,5.0,3.0,5.0,99.0,99.0,4.0,4.0,4.0,99.0,99.0,6.0,5.0,6.0,5.0,6.0,4.0,3.0,4.0,5.0,5.0,99.0,2.0,2.0,4.0,2.0,My (relatively new) job is thankfully secure but I feel very distressed for those whose jobs are not| also for close friends who are healthcare workers and exposed to high risk daily.,5.0,5.0,4.0,4.0,5.0,5.0,5.0,5.0,5.0,5.0,3.0,2.0,5.0,2.0,4.0,4.0,2.0,2.0,5.0,3.0,3.0,2.0,4.0,2.0,4.0,3.0,,1.0,4.0,2.0,2.0,2.0,3.0,,3.2,3.666667,4.0,2.333333,5.0,4.666667,4.666667,4.8
40980,1442,2020-04-05 09:47:51,FI,52,Female,"College degree, bachelor, master",Some College or equivalent,Self-employed,United States,yes,,Married/cohabiting,1.0,Yes,Isolated,2.0,0.0,Program A,,No,3.0,2.0,3.0,5.0,4.0,2.0,4.0,4.0,3.0,1.0,2.0,2.0,2.0,6.0,9.0,1.0,5.0,1.0,0.0,6.0,1.0,4.0,5.0,5.0,5.0,5.0,1.0,5.0,5.0,5.0,2.0,5.0,2.0,2.0,2.0,5.0,3.0,3.0,4.0,5.0,5.0,5.0,2.0,5.0,5.0,5.0,1.0,5.0,2.0,1.0,2.0,1.0,2.0,4.0,2.0,2.0,2.0,5.0,3.0,4.0,3.0,4.0,1.0,2.0,2.0,2.0,2.0,2.0,2.0,2.0,4.0,4.0,,6.0,5.0,5.0,6.0,5.0,6.0,5.0,6.0,5.0,5.0,2.0,6.0,5.0,2.0,5.0,1.0,4.0,1.0,5.0,6.0,4.0,3.0,6.0,5.0,5.0,3.0,,2.0,5.0,5.0,3.0,3.0,5.0,Liikunta ja meditaatio ovat tärkeitä minulle,2.1,2.0,2.0,3.0,5.0,5.0,5.333333,5.4
41021,521,2020-04-05 09:27:57,EN,34,Female,"College degree, bachelor, master",College degree,Full time employed,United States,no,Kentucky,Single,0.0,Yes,Isolated,0.0,0.0,Program A,,No,5.0,4.0,5.0,3.0,3.0,4.0,4.0,3.0,5.0,3.0,5.0,3.0,5.0,6.0,9.0,1.0,0.0,5.0,0.0,5.0,0.0,5.0,6.0,5.0,6.0,6.0,0.0,5.0,5.0,6.0,6.0,4.0,4.0,4.0,4.0,5.0,4.0,4.0,4.0,4.0,6.0,5.0,4.0,5.0,6.0,5.0,4.0,5.0,6.0,5.0,99.0,6.0,4.0,6.0,4.0,99.0,99.0,6.0,5.0,5.0,5.0,6.0,99.0,5.0,5.0,6.0,6.0,6.0,5.0,6.0,6.0,6.0,,6.0,5.0,5.0,5.0,5.0,5.0,5.0,5.0,5.0,5.0,4.0,6.0,6.0,1.0,3.0,5.0,4.0,2.0,5.0,4.0,4.0,5.0,2.0,5.0,5.0,4.0,,1.0,2.0,3.0,4.0,3.0,3.0,,3.7,4.333333,3.333333,3.666667,5.0,4.666667,4.333333,5.1
41049,941,2020-04-05 09:31:46,EN,34,Female,"Some College, short continuing education or equivalent",Up to 12 years of school,Full time employed,United States,no,VA,Single,0.0,Yes,Isolated,1.0,0.0,,Program C,Yes,3.0,4.0,4.0,3.0,3.0,2.0,4.0,4.0,4.0,2.0,2.0,1.0,2.0,2.0,7.0,2.0,2.0,4.0,5.0,7.0,1.0,4.0,6.0,5.0,5.0,5.0,0.0,6.0,6.0,6.0,1.0,2.0,5.0,4.0,3.0,4.0,4.0,3.0,5.0,3.0,6.0,5.0,2.0,4.0,4.0,4.0,2.0,5.0,99.0,5.0,99.0,2.0,5.0,2.0,4.0,4.0,99.0,6.0,6.0,5.0,5.0,6.0,99.0,2.0,5.0,2.0,2.0,3.0,2.0,2.0,4.0,3.0,"The possibility I could be asymptotic and carrying the virus to my father, who I MUST care for. Im an essential employee.",6.0,5.0,4.0,5.0,6.0,4.0,6.0,6.0,4.0,6.0,3.0,5.0,6.0,5.0,2.0,5.0,2.0,2.0,6.0,4.0,4.0,5.0,5.0,3.0,5.0,4.0,,3.0,6.0,4.0,4.0,4.0,3.0,"My father had a stroke in January and has been in medical facilities since then up until March, so Ive been monitoring the Coronavirus situation for most of that time and I was already engaged in major measures  within my own family to try and avoid all infections for him. So shutdowns and everyone ELSE engaging in social distancing has actually made my life EASIER. In February, everyone thought I was rude for refusing to shake hands. Now its normal.",2.9,1.666667,3.333333,3.0,4.666667,4.333333,4.666667,5.2
41237,1462,2020-04-05 09:15:19,EN,36,Female,"College degree, bachelor, master",PhD/Doctorate,Full time employed,United States,no,Virginia,Single,0.0,Yes,Life carries on with minor changes,,,Program A,,No,3.0,5.0,5.0,3.0,3.0,1.0,4.0,3.0,4.0,2.0,4.0,4.0,5.0,6.0,7.0,3.0,1.0,5.0,1.0,7.0,2.0,5.0,6.0,5.0,6.0,6.0,1.0,6.0,5.0,6.0,1.0,2.0,4.0,5.0,2.0,4.0,5.0,2.0,5.0,6.0,6.0,6.0,3.0,5.0,4.0,5.0,4.0,4.0,2.0,4.0,99.0,2.0,5.0,5.0,3.0,1.0,99.0,3.0,3.0,5.0,5.0,5.0,99.0,2.0,4.0,5.0,2.0,5.0,2.0,1.0,5.0,99.0,Not being able to fully isolate due to factors outside my control (i.e. my employers' decisions),6.0,6.0,6.0,6.0,6.0,5.0,6.0,6.0,4.0,6.0,4.0,5.0,5.0,3.0,4.0,6.0,4.0,2.0,5.0,2.0,4.0,3.0,2.0,4.0,4.0,5.0,,3.0,5.0,2.0,4.0,5.0,2.0,,3.1,4.333333,3.333333,3.0,6.0,4.333333,4.0,5.7
41372,809,2020-04-05 08:47:08,EN,39,Female,"College degree, bachelor, master",College degree,Full time employed,United States,no,Wa,Single,0.0,Yes,Life carries on as usual,0.0,0.0,,Program D,No,1.0,2.0,2.0,4.0,4.0,2.0,5.0,4.0,2.0,1.0,1.0,2.0,1.0,9.0,9.0,5.0,10.0,8.0,8.0,10.0,7.0,4.0,5.0,5.0,6.0,6.0,4.0,5.0,5.0,5.0,1.0,2.0,2.0,2.0,3.0,5.0,2.0,1.0,6.0,4.0,4.0,5.0,3.0,5.0,4.0,4.0,5.0,4.0,2.0,2.0,99.0,4.0,3.0,1.0,4.0,99.0,99.0,5.0,3.0,5.0,5.0,4.0,99.0,3.0,3.0,2.0,2.0,99.0,2.0,1.0,3.0,5.0,,5.0,2.0,2.0,3.0,4.0,2.0,4.0,2.0,2.0,4.0,5.0,4.0,5.0,4.0,4.0,5.0,1.0,1.0,4.0,4.0,3.0,5.0,5.0,5.0,5.0,4.0,,2.0,2.0,2.0,2.0,2.0,5.0,"My job re- instated a protective eyewear policy, the eyewear makes it difficult for me to see and causes migraines.  Im ashamed to admit, this has been the hardest part of the pandemic for me, especially bc this will force me to find a different job, and im worried finding a job will be difficult in this climate.",1.7,1.333333,2.333333,1.333333,4.333333,4.333333,3.333333,3.0
41497,333,2020-04-06 08:22:44,EN,35,Female,"College degree, bachelor, master",College degree,Full time employed,United States,no,,Single,0.0,Yes,Life carries on with minor changes,1.0,0.0,,,,3.0,4.0,3.0,3.0,2.0,3.0,4.0,3.0,3.0,3.0,4.0,3.0,3.0,9.0,5.0,5.0,10.0,10.0,10.0,10.0,5.0,5.0,5.0,5.0,5.0,5.0,5.0,5.0,4.0,4.0,2.0,2.0,2.0,,,,,,,,,,,,,,,,,,,,,,,,,,,,,,,,,,,,,,,,,,,,,,,,,,,,,,,,,,,,,,,,,,,,,,,,,,,3.1,3.333333,,,,,,
41780,923,2020-04-05 07:54:11,EN,22,Female,"College degree, bachelor, master",College degree,Full time employed,United States,no,New York,Single,0.0,Yes,Isolated,1.0,0.0,,Program C,No,3.0,5.0,5.0,3.0,1.0,4.0,3.0,2.0,5.0,4.0,5.0,3.0,5.0,2.0,7.0,1.0,9.0,5.0,9.0,2.0,1.0,6.0,6.0,5.0,5.0,5.0,0.0,5.0,6.0,6.0,2.0,1.0,5.0,4.0,6.0,3.0,5.0,4.0,4.0,5.0,5.0,2.0,2.0,5.0,6.0,5.0,4.0,6.0,5.0,3.0,99.0,5.0,5.0,5.0,99.0,6.0,99.0,6.0,3.0,6.0,6.0,5.0,3.0,2.0,2.0,6.0,2.0,3.0,6.0,1.0,5.0,2.0,Being pregnant during the pandemic/safety of my unborn child.,5.0,4.0,4.0,4.0,6.0,4.0,6.0,6.0,2.0,6.0,1.0,2.0,6.0,1.0,2.0,5.0,4.0,2.0,5.0,2.0,5.0,5.0,4.0,2.0,1.0,1.0,,5.0,6.0,2.0,5.0,5.0,1.0,"I am worried because due to the novelty of the virus there is little research on how it affects pregnant women, fetuses, and newborns. I am due July 2020 and very nervous to give birth during this pandemic. I am worried that we will still need to be in isolation at that time and I will not have the support I need from friends and family after giving birth. I am worried about giving birth in overrun hospitals with exhausted staff with no PPE surrounded by contagious and ill patients.",4.1,4.333333,4.666667,4.0,4.0,5.333333,4.666667,4.7
41809,658,2020-04-05 07:46:48,EN,28,Female,"College degree, bachelor, master",College degree,Full time employed,United States,no,Iowa,Single,0.0,Yes,Isolated,5.0,0.0,Program A,,Not sure,3.0,4.0,4.0,3.0,3.0,3.0,3.0,3.0,3.0,4.0,4.0,4.0,5.0,3.0,5.0,3.0,6.0,6.0,3.0,4.0,3.0,4.0,5.0,6.0,5.0,5.0,2.0,5.0,5.0,5.0,3.0,4.0,5.0,6.0,6.0,5.0,6.0,2.0,6.0,4.0,4.0,6.0,3.0,4.0,6.0,5.0,3.0,5.0,4.0,6.0,99.0,3.0,4.0,6.0,5.0,6.0,99.0,5.0,4.0,6.0,5.0,5.0,6.0,6.0,5.0,6.0,6.0,5.0,4.0,2.0,6.0,5.0,,5.0,5.0,5.0,5.0,5.0,5.0,6.0,6.0,5.0,5.0,4.0,3.0,5.0,3.0,5.0,3.0,1.0,1.0,2.0,5.0,4.0,4.0,5.0,5.0,5.0,4.0,,6.0,5.0,3.0,5.0,5.0,3.0,,3.3,4.333333,4.666667,3.0,4.666667,4.666667,4.666667,5.2
41865,832,2020-04-06 07:42:42,EN,61,Female,"Some College, short continuing education or equivalent",College degree,Retired,United States,no,California,Married/cohabiting,0.0,Yes,Life carries on with minor changes,3.0,0.0,Program B,,No,4.0,3.0,4.0,2.0,3.0,3.0,3.0,3.0,4.0,3.0,2.0,3.0,3.0,4.0,8.0,6.0,7.0,9.0,4.0,9.0,4.0,6.0,6.0,6.0,6.0,6.0,2.0,4.0,6.0,5.0,1.0,2.0,4.0,3.0,3.0,5.0,5.0,6.0,2.0,5.0,6.0,5.0,4.0,4.0,4.0,5.0,2.0,5.0,5.0,3.0,99.0,99.0,6.0,5.0,1.0,4.0,99.0,6.0,1.0,6.0,6.0,6.0,5.0,4.0,4.0,2.0,5.0,3.0,5.0,4.0,5.0,3.0,,,,,,,,,,,,,,,,,,,,,,,,,,,,,,,,,,,,3.4,2.666667,2.666667,5.333333,5.333333,3.666667,5.0,
41919,1144,2020-04-05 07:39:00,EN,42,Male,"College degree, bachelor, master",College degree,Full time employed,United States,no,North Carolina,Divorced/widowed,0.0,Yes,Isolated,0.0,0.0,,Program D,No,2.0,3.0,5.0,3.0,4.0,2.0,4.0,2.0,2.0,2.0,5.0,3.0,5.0,8.0,9.0,4.0,3.0,4.0,5.0,9.0,3.0,4.0,4.0,5.0,6.0,6.0,0.0,5.0,5.0,5.0,6.0,4.0,5.0,6.0,4.0,4.0,6.0,4.0,3.0,6.0,5.0,6.0,2.0,6.0,6.0,4.0,1.0,4.0,2.0,4.0,99.0,4.0,2.0,6.0,99.0,99.0,99.0,6.0,4.0,4.0,4.0,5.0,4.0,5.0,4.0,6.0,6.0,6.0,3.0,2.0,6.0,5.0,,6.0,6.0,6.0,5.0,6.0,6.0,6.0,6.0,6.0,6.0,3.0,5.0,5.0,5.0,5.0,4.0,5.0,5.0,5.0,5.0,2.0,4.0,5.0,6.0,2.0,1.0,,6.0,6.0,5.0,5.0,6.0,3.0,,2.7,4.333333,4.333333,4.666667,5.666667,5.666667,4.666667,5.9
42009,1630,2020-04-05 07:34:30,SME,30,Male,Up to 12 years of school,Up to 9 years of school,Full time employed,United States,no,Michigan,Single,0.0,Yes,Isolated,2.0,0.0,,Program D,Not sure,1.0,1.0,2.0,5.0,5.0,2.0,5.0,4.0,3.0,1.0,1.0,1.0,2.0,5.0,5.0,0.0,1.0,1.0,4.0,1.0,4.0,6.0,4.0,4.0,1.0,4.0,0.0,6.0,6.0,6.0,6.0,4.0,5.0,3.0,3.0,4.0,2.0,3.0,5.0,5.0,6.0,6.0,2.0,4.0,6.0,5.0,3.0,5.0,99.0,1.0,99.0,1.0,1.0,4.0,99.0,1.0,99.0,4.0,5.0,4.0,4.0,4.0,99.0,1.0,2.0,99.0,2.0,4.0,1.0,2.0,3.0,99.0,,6.0,6.0,6.0,6.0,6.0,6.0,6.0,6.0,6.0,6.0,1.0,2.0,5.0,1.0,5.0,4.0,5.0,6.0,5.0,4.0,,1.0,5.0,6.0,1.0,1.0,,2.0,2.0,3.0,2.0,2.0,1.0,,1.5,1.333333,3.0,2.333333,5.666667,5.0,4.666667,6.0
42441,1487,2020-04-05 06:42:56,EN,39,Female,"College degree, bachelor, master",College degree,Not employed,United States,no,Oklahoma,Married/cohabiting,6.0,Yes,Isolated,2.0,4.0,,,,3.0,4.0,4.0,3.0,3.0,2.0,3.0,3.0,2.0,2.0,1.0,4.0,3.0,5.0,8.0,3.0,4.0,4.0,2.0,2.0,4.0,6.0,6.0,5.0,4.0,4.0,2.0,5.0,6.0,5.0,3.0,3.0,2.0,4.0,2.0,3.0,5.0,3.0,3.0,6.0,6.0,4.0,2.0,5.0,5.0,5.0,1.0,5.0,99.0,2.0,5.0,2.0,1.0,6.0,4.0,3.0,1.0,5.0,6.0,6.0,6.0,6.0,99.0,5.0,1.0,1.0,5.0,2.0,4.0,1.0,6.0,1.0,,6.0,6.0,6.0,6.0,6.0,5.0,6.0,6.0,6.0,6.0,3.0,6.0,5.0,3.0,5.0,4.0,6.0,5.0,6.0,6.0,5.0,2.0,4.0,4.0,6.0,3.0,,5.0,5.0,5.0,5.0,5.0,2.0,,2.9,2.666667,3.333333,4.0,5.333333,5.0,5.333333,5.9
42477,2339,2020-04-05 06:52:15,EN,38,Female,PhD/Doctorate,College degree,Full time employed,United States,no,Michigan,Married/cohabiting,2.0,No,Isolated,1.0,2.0,Program A,,No,4.0,3.0,5.0,4.0,3.0,2.0,2.0,3.0,3.0,2.0,1.0,2.0,2.0,6.0,8.0,5.0,4.0,5.0,5.0,6.0,3.0,6.0,6.0,6.0,6.0,6.0,2.0,5.0,6.0,6.0,3.0,2.0,3.0,5.0,5.0,4.0,4.0,2.0,5.0,4.0,5.0,3.0,3.0,5.0,5.0,4.0,2.0,5.0,3.0,5.0,3.0,3.0,5.0,3.0,3.0,2.0,5.0,5.0,3.0,6.0,5.0,5.0,5.0,4.0,3.0,3.0,4.0,3.0,6.0,2.0,5.0,1.0,,4.0,5.0,5.0,5.0,5.0,5.0,5.0,6.0,4.0,4.0,2.0,1.0,4.0,1.0,5.0,4.0,1.0,1.0,4.0,5.0,5.0,4.0,5.0,5.0,4.0,4.0,,4.0,6.0,2.0,3.0,5.0,3.0,I have more faith in my local government (Governor) than federal (President).  Some questions were difficult to answer because it addresses government as a whole.,3.1,1.666667,4.333333,2.666667,4.0,4.666667,4.666667,4.8
42597,1154,2020-04-05 06:16:57,EN,59,Female,PhD/Doctorate,College degree,Full time employed,United States,no,Nj,Married/cohabiting,2.0,Yes,Isolated,0.0,0.0,Program B,,No,5.0,5.0,5.0,1.0,1.0,5.0,1.0,1.0,5.0,5.0,5.0,5.0,5.0,0.0,4.0,2.0,1.0,0.0,4.0,5.0,7.0,6.0,6.0,6.0,6.0,5.0,10.0,6.0,5.0,6.0,6.0,2.0,2.0,2.0,1.0,6.0,2.0,1.0,4.0,5.0,6.0,5.0,2.0,6.0,6.0,6.0,2.0,5.0,6.0,6.0,6.0,6.0,6.0,6.0,6.0,1.0,6.0,6.0,6.0,2.0,1.0,6.0,4.0,5.0,3.0,6.0,5.0,2.0,6.0,5.0,6.0,6.0,This question made no sense. Too many double negatives. I worry about viral fear more than corona virus.,5.0,5.0,5.0,6.0,5.0,6.0,1.0,6.0,6.0,2.0,6.0,6.0,6.0,2.0,3.0,1.0,1.0,1.0,1.0,6.0,3.0,5.0,6.0,5.0,5.0,6.0,Journalists are spreading fear more than knowledge or information. They are addicted to click bait.,6.0,4.0,5.0,1.0,1.0,2.0,"Journalists and political operatives are using a viral epidemic, currently with less morbidity and mortality than influenza, to spread fear globally. Each day as the epidemic curve improves in China, Italy, Korea, Japan, Washington state, etc. these fear mongers seem to up their end-of-the world rhetoric. They seem to see this as a scorched earth opportunity to destroy what was an improving inequality. The disease that is killing us now is viral fear more than SARS-CoV2.",5.0,5.0,1.333333,2.0,5.333333,5.666667,5.333333,4.7
42745,2771,2020-04-05 06:28:10,LT,40,Female,"College degree, bachelor, master",College degree,Not employed,United States,yes,Virginia,Married/cohabiting,3.0,Yes,Life carries on with minor changes,1.0,3.0,Program B,,No,3.0,1.0,3.0,5.0,3.0,2.0,4.0,3.0,3.0,2.0,2.0,1.0,2.0,8.0,9.0,8.0,10.0,8.0,4.0,5.0,6.0,5.0,6.0,6.0,6.0,6.0,3.0,5.0,5.0,6.0,4.0,3.0,5.0,4.0,5.0,4.0,5.0,5.0,2.0,4.0,5.0,4.0,4.0,5.0,4.0,2.0,5.0,5.0,3.0,3.0,4.0,4.0,4.0,4.0,2.0,2.0,6.0,6.0,2.0,6.0,6.0,6.0,99.0,4.0,2.0,2.0,3.0,3.0,2.0,2.0,6.0,6.0,,6.0,5.0,5.0,6.0,6.0,6.0,6.0,6.0,4.0,6.0,5.0,5.0,4.0,2.0,1.0,5.0,1.0,1.0,6.0,4.0,4.0,5.0,2.0,3.0,4.0,5.0,,6.0,4.0,3.0,5.0,6.0,4.0,,2.3,1.666667,4.0,5.0,4.333333,4.0,3.0,5.6
43037,1054,2020-04-05 05:22:30,EN,70,Female,PhD/Doctorate,Up to 12 years of school,Full time employed,United States,no,North Carolina,Single,0.0,Yes,Isolated,0.0,0.0,Program B,,No,3.0,4.0,4.0,4.0,2.0,3.0,3.0,3.0,3.0,3.0,4.0,3.0,4.0,7.0,9.0,6.0,8.0,6.0,6.0,7.0,6.0,6.0,6.0,5.0,5.0,5.0,3.0,5.0,5.0,6.0,5.0,4.0,5.0,4.0,4.0,5.0,5.0,4.0,5.0,4.0,5.0,,2.0,5.0,4.0,4.0,2.0,5.0,6.0,5.0,4.0,5.0,5.0,6.0,3.0,4.0,3.0,6.0,5.0,6.0,5.0,6.0,6.0,6.0,4.0,6.0,6.0,5.0,5.0,6.0,6.0,4.0,,4.0,5.0,4.0,4.0,5.0,5.0,5.0,5.0,5.0,5.0,5.0,4.0,5.0,3.0,4.0,4.0,4.0,3.0,5.0,4.0,6.0,5.0,5.0,4.0,4.0,4.0,,4.0,6.0,4.0,5.0,4.0,4.0,Bring alone all the time.  Not bring able to see friends and clients at work.,3.2,3.666667,3.333333,3.666667,4.5,4.666667,4.666667,4.7
43350,1159,2020-04-05 04:46:54,EN,59,Female,"College degree, bachelor, master",PhD/Doctorate,Full time employed,United States,no,New York,Single,1.0,Yes,Isolated,0.0,0.0,Program A,,No,2.0,2.0,5.0,4.0,3.0,2.0,4.0,4.0,2.0,1.0,2.0,2.0,3.0,5.0,8.0,5.0,8.0,9.0,5.0,9.0,5.0,6.0,5.0,6.0,6.0,6.0,2.0,6.0,6.0,6.0,4.0,2.0,4.0,4.0,4.0,6.0,5.0,3.0,5.0,5.0,5.0,3.0,2.0,5.0,5.0,5.0,4.0,6.0,2.0,6.0,5.0,4.0,2.0,5.0,1.0,1.0,99.0,4.0,6.0,6.0,6.0,6.0,5.0,6.0,2.0,4.0,5.0,2.0,2.0,1.0,4.0,1.0,,6.0,5.0,5.0,5.0,6.0,6.0,6.0,6.0,5.0,5.0,5.0,6.0,5.0,5.0,5.0,5.0,2.0,4.0,6.0,5.0,4.0,5.0,5.0,4.0,5.0,4.0,,6.0,6.0,2.0,3.0,6.0,1.0,,2.3,2.333333,3.0,3.333333,4.333333,5.0,4.666667,5.5
44095,244,2020-04-06 02:44:46,EN,24,Female,"Some College, short continuing education or equivalent",,Full time employed,United States,no,AZ,Married/cohabiting,1.0,No,Life carries on with minor changes,1.0,0.0,Program B,,No,3.0,3.0,5.0,4.0,3.0,3.0,3.0,2.0,1.0,4.0,1.0,1.0,3.0,,,,,,,,,,,,,,,,,,,,,,,,,,,,,,,,,,,,,,,,,,,,,,,,,,,,,,,,,,,,,,,,,,,,,,,,,,,,,,,,,,,,,,,,,,,,,,,3.1,1.666667,,,,,,
44382,778,2020-04-05 02:14:57,SME,34,Male,PhD/Doctorate,Up to 9 years of school,Full time employed,United States,yes,Arizona,Married/cohabiting,1.0,Yes,Life carries on with minor changes,1.0,0.0,Program A,,No,2.0,2.0,4.0,5.0,4.0,3.0,4.0,4.0,3.0,2.0,1.0,2.0,5.0,8.0,9.0,10.0,10.0,10.0,4.0,8.0,10.0,6.0,6.0,5.0,6.0,5.0,9.0,5.0,6.0,6.0,2.0,4.0,2.0,5.0,5.0,6.0,6.0,6.0,1.0,6.0,6.0,6.0,3.0,5.0,6.0,,2.0,6.0,2.0,5.0,99.0,6.0,1.0,2.0,1.0,2.0,99.0,6.0,1.0,5.0,5.0,6.0,4.0,2.0,2.0,5.0,2.0,6.0,1.0,1.0,1.0,6.0,,6.0,6.0,6.0,6.0,6.0,6.0,6.0,6.0,6.0,6.0,6.0,1.0,5.0,1.0,5.0,1.0,1.0,1.0,1.0,4.0,3.0,6.0,6.0,5.0,1.0,6.0,,6.0,2.0,6.0,5.0,6.0,1.0,Economy,2.3,2.666667,3.666667,6.0,6.0,5.0,5.5,6.0
44516,821,2020-04-05 01:58:16,SME,56,Male,PhD/Doctorate,Up to 6 years of school,Full time employed,United States,yes,California,Single,0.0,Yes,Isolated,0.0,0.0,,Program D,No,2.0,1.0,2.0,4.0,4.0,2.0,5.0,3.0,1.0,2.0,2.0,2.0,2.0,5.0,7.0,0.0,9.0,9.0,8.0,9.0,10.0,6.0,6.0,6.0,6.0,6.0,0.0,6.0,6.0,6.0,2.0,6.0,2.0,4.0,2.0,5.0,2.0,3.0,6.0,6.0,6.0,6.0,2.0,4.0,5.0,6.0,2.0,6.0,4.0,1.0,1.0,5.0,2.0,2.0,1.0,1.0,1.0,6.0,1.0,5.0,3.0,6.0,1.0,1.0,1.0,2.0,2.0,1.0,1.0,4.0,5.0,1.0,,6.0,5.0,5.0,5.0,4.0,6.0,6.0,5.0,6.0,5.0,6.0,2.0,6.0,3.0,4.0,5.0,1.0,1.0,5.0,4.0,5.0,5.0,5.0,6.0,5.0,6.0,,5.0,6.0,5.0,5.0,3.0,3.0,,1.8,2.0,2.666667,2.0,6.0,4.666667,5.666667,5.3
44541,1175,2020-04-05 02:00:38,EN,63,Female,"College degree, bachelor, master",Up to 12 years of school,Full time employed,United States,no,California,Other or would rather not say,0.0,Yes,Life carries on with minor changes,,,,Program C,No,2.0,3.0,2.0,4.0,4.0,2.0,2.0,4.0,2.0,1.0,5.0,2.0,4.0,7.0,9.0,5.0,7.0,8.0,8.0,9.0,1.0,6.0,6.0,6.0,6.0,6.0,2.0,6.0,6.0,6.0,2.0,1.0,1.0,6.0,4.0,4.0,4.0,6.0,1.0,4.0,6.0,4.0,6.0,5.0,3.0,6.0,4.0,5.0,1.0,1.0,1.0,99.0,1.0,6.0,1.0,99.0,99.0,6.0,4.0,5.0,4.0,4.0,99.0,99.0,2.0,4.0,3.0,5.0,1.0,1.0,5.0,1.0,,4.0,4.0,4.0,3.0,4.0,5.0,4.0,4.0,4.0,4.0,4.0,1.0,5.0,6.0,3.0,1.0,4.0,1.0,4.0,4.0,,4.0,6.0,1.0,2.0,4.0,,4.0,4.0,4.0,1.0,4.0,3.0,,2.2,3.666667,4.333333,5.333333,4.666667,3.0,4.666667,4.0
44727,888,2020-04-05 01:31:52,ZH-T,37,Female,PhD/Doctorate,PhD/Doctorate,Self-employed,United States,yes,California,Married/cohabiting,0.0,Yes,Isolated,1.0,0.0,Program B,,No,4.0,5.0,4.0,2.0,2.0,4.0,2.0,2.0,4.0,3.0,1.0,1.0,4.0,7.0,9.0,5.0,5.0,5.0,3.0,0.0,3.0,6.0,6.0,6.0,,6.0,0.0,5.0,4.0,5.0,2.0,2.0,6.0,5.0,4.0,5.0,4.0,4.0,4.0,4.0,5.0,4.0,2.0,5.0,4.0,3.0,4.0,6.0,6.0,4.0,99.0,6.0,3.0,1.0,1.0,4.0,99.0,6.0,2.0,4.0,4.0,4.0,2.0,1.0,4.0,1.0,2.0,1.0,6.0,4.0,6.0,1.0,,3.0,5.0,5.0,2.0,5.0,4.0,4.0,4.0,4.0,5.0,2.0,6.0,5.0,2.0,4.0,6.0,2.0,1.0,4.0,4.0,6.0,4.0,5.0,4.0,2.0,4.0,,5.0,5.0,4.0,6.0,6.0,3.0,,4.0,2.0,3.666667,3.666667,4.333333,4.666667,4.0,4.1
44734,1249,2020-04-05 01:36:45,EN,64,Female,PhD/Doctorate,College degree,Full time employed,United States,no,CA,Married/cohabiting,0.0,Yes,Isolated,2.0,0.0,,,,2.0,2.0,3.0,4.0,3.0,2.0,3.0,4.0,2.0,1.0,4.0,3.0,4.0,7.0,9.0,3.0,8.0,6.0,9.0,8.0,4.0,4.0,4.0,4.0,6.0,6.0,3.0,5.0,5.0,6.0,2.0,4.0,3.0,4.0,3.0,5.0,3.0,1.0,3.0,3.0,6.0,3.0,1.0,4.0,6.0,5.0,5.0,5.0,2.0,4.0,1.0,99.0,4.0,4.0,2.0,5.0,99.0,5.0,4.0,4.0,2.0,4.0,4.0,4.0,1.0,6.0,6.0,2.0,99.0,2.0,4.0,4.0,,5.0,5.0,3.0,4.0,5.0,5.0,5.0,5.0,5.0,4.0,1.0,2.0,5.0,4.0,5.0,5.0,1.0,1.0,4.0,5.0,4.0,4.0,5.0,3.0,5.0,2.0,,2.0,6.0,5.0,3.0,3.0,4.0,Concern if I will be able to purchase a home,2.2,3.666667,3.0,2.666667,4.0,5.333333,4.0,4.6
44925,5421,2020-04-05 02:20:26,EN,40,Female,"College degree, bachelor, master",College degree,Full time employed,United States,no,ldaho,Married/cohabiting,4.0,Yes,Isolated,1.0,1.0,Program A,,No,2.0,1.0,3.0,4.0,3.0,1.0,4.0,4.0,2.0,2.0,1.0,1.0,3.0,7.0,9.0,7.0,7.0,7.0,8.0,10.0,8.0,5.0,5.0,5.0,6.0,6.0,5.0,6.0,6.0,6.0,1.0,5.0,1.0,3.0,2.0,3.0,6.0,4.0,4.0,6.0,6.0,5.0,2.0,6.0,5.0,5.0,4.0,6.0,99.0,4.0,4.0,99.0,3.0,6.0,3.0,1.0,3.0,5.0,2.0,5.0,4.0,5.0,99.0,4.0,99.0,1.0,4.0,2.0,2.0,1.0,5.0,1.0,,6.0,3.0,5.0,5.0,6.0,6.0,6.0,6.0,6.0,6.0,5.0,5.0,5.0,5.0,5.0,5.0,1.0,1.0,5.0,5.0,5.0,5.0,5.0,5.0,6.0,5.0,,5.0,2.0,2.0,5.0,2.0,6.0,"I am an RN at a LTC/Rehab facility, so my finances have not yet been negatively affected by this current situation. But the ease of my job duties has improved with the lockdown and isolation of our facility| I feel much less stressed than usual.",2.0,1.666667,3.0,4.333333,5.666667,5.333333,4.666667,5.5
45101,621,2020-04-05 00:32:10,EN,39,Female,"College degree, bachelor, master",Some College or equivalent,Full time employed,United States,no,Washington state,Married/cohabiting,2.0,Yes,Life carries on with minor changes,,,Program B,,No,5.0,5.0,5.0,5.0,1.0,5.0,1.0,1.0,5.0,5.0,4.0,5.0,5.0,9.0,10.0,5.0,6.0,6.0,2.0,10.0,4.0,5.0,5.0,5.0,5.0,5.0,3.0,6.0,6.0,6.0,5.0,2.0,5.0,6.0,4.0,6.0,6.0,6.0,1.0,5.0,4.0,6.0,4.0,5.0,6.0,5.0,1.0,6.0,6.0,6.0,6.0,6.0,6.0,6.0,1.0,1.0,4.0,6.0,6.0,6.0,6.0,6.0,6.0,6.0,4.0,6.0,6.0,6.0,5.0,1.0,6.0,99.0,,6.0,6.0,6.0,6.0,6.0,6.0,6.0,6.0,6.0,6.0,3.0,6.0,6.0,6.0,6.0,6.0,1.0,1.0,6.0,6.0,6.0,3.0,6.0,6.0,1.0,3.0,,6.0,6.0,6.0,6.0,6.0,1.0,,4.6,4.666667,3.666667,6.0,5.0,4.666667,5.666667,6.0
45362,986,2020-04-04 23:58:10,EN,61,Female,"College degree, bachelor, master",Up to 12 years of school,Full time employed,United States,no,Texas,Divorced/widowed,2.0,Yes,Isolated,2.0,0.0,Program B,,No,3.0,2.0,3.0,4.0,4.0,3.0,4.0,4.0,3.0,3.0,2.0,3.0,2.0,7.0,9.0,5.0,7.0,9.0,8.0,8.0,5.0,5.0,5.0,5.0,5.0,5.0,4.0,5.0,5.0,5.0,2.0,3.0,4.0,2.0,2.0,5.0,6.0,5.0,3.0,5.0,5.0,5.0,2.0,5.0,5.0,5.0,3.0,5.0,99.0,4.0,3.0,2.0,4.0,4.0,3.0,3.0,99.0,5.0,5.0,5.0,5.0,5.0,3.0,3.0,4.0,3.0,5.0,3.0,4.0,2.0,4.0,5.0,,5.0,5.0,5.0,5.0,5.0,5.0,5.0,5.0,5.0,5.0,4.0,2.0,5.0,1.0,5.0,1.0,1.0,1.0,5.0,3.0,4.0,5.0,4.0,4.0,5.0,4.0,,4.0,4.0,4.0,4.0,1.0,3.0,,2.5,2.333333,2.0,5.0,5.0,5.0,4.666667,5.0
45374,700,2020-04-05 23:51:26,EN,40,Female,"College degree, bachelor, master",College degree,Not employed,United States,no,Iowa,Married/cohabiting,4.0,Yes,Life carries on with minor changes,1.0,1.0,Program B,,No,3.0,3.0,3.0,4.0,4.0,4.0,4.0,4.0,3.0,2.0,2.0,2.0,2.0,7.0,7.0,5.0,8.0,8.0,6.0,10.0,5.0,5.0,5.0,5.0,5.0,5.0,3.0,,,,,,,,,,,,,,,,,,,,,,,,,,,,,,,,,,,,,,,,,,,,,,,,,,,,,,,,,,,,,,,,,,,,,,,,,,,,,,,,,2.6,2.0,,,,,,
45379,688,2020-04-05 00:05:59,EN,39,Male,"College degree, bachelor, master",Some College or equivalent,Full time employed,United States,no,WA,Married/cohabiting,0.0,Yes,Life carries on with minor changes,1.0,0.0,Program A,,No,1.0,5.0,2.0,5.0,3.0,2.0,5.0,4.0,1.0,2.0,1.0,1.0,1.0,7.0,9.0,2.0,2.0,7.0,2.0,6.0,1.0,3.0,4.0,3.0,5.0,5.0,2.0,5.0,6.0,6.0,2.0,5.0,2.0,2.0,2.0,5.0,2.0,3.0,5.0,6.0,6.0,5.0,2.0,5.0,6.0,4.0,4.0,6.0,1.0,1.0,99.0,1.0,2.0,1.0,1.0,1.0,99.0,4.0,2.0,3.0,3.0,2.0,1.0,1.0,1.0,1.0,1.0,1.0,5.0,1.0,2.0,1.0,,6.0,5.0,5.0,6.0,6.0,6.0,5.0,6.0,6.0,5.0,2.0,4.0,4.0,2.0,4.0,3.0,5.0,4.0,3.0,5.0,5.0,4.0,2.0,5.0,1.0,5.0,,2.0,3.0,3.0,3.0,2.0,4.0,,2.0,1.0,2.0,2.333333,5.666667,5.333333,4.333333,5.6
45464,346,2020-04-05 23:30:42,EN,58,Female,"College degree, bachelor, master",Up to 12 years of school,Self-employed,United States,no,,Married/cohabiting,2.0,Not sure,Life carries on with minor changes,4.0,0.0,,Program D,No,2.0,1.0,3.0,4.0,4.0,1.0,5.0,3.0,3.0,2.0,1.0,1.0,1.0,,,,,,,,,,,,,,,,,,,,,,,,,,,,,,,,,,,,,,,,,,,,,,,,,,,,,,,,,,,,,,,,,,,,,,,,,,,,,,,,,,,,,,,,,,,,,,,2.0,1.0,,,,,,
45517,1172,2020-04-04 23:35:21,EN,57,Female,PhD/Doctorate,College degree,Not employed,United States,no,California,Married/cohabiting,1.0,No,Isolated,1.0,0.0,,,,2.0,3.0,2.0,5.0,3.0,1.0,5.0,4.0,3.0,1.0,1.0,2.0,3.0,5.0,8.0,3.0,8.0,10.0,5.0,10.0,0.0,5.0,6.0,6.0,6.0,6.0,0.0,5.0,5.0,5.0,2.0,4.0,3.0,6.0,1.0,6.0,3.0,2.0,4.0,5.0,5.0,6.0,4.0,5.0,5.0,6.0,2.0,6.0,1.0,99.0,99.0,99.0,3.0,4.0,4.0,1.0,99.0,5.0,2.0,5.0,5.0,6.0,99.0,4.0,99.0,3.0,4.0,2.0,1.0,4.0,2.0,99.0,,6.0,6.0,6.0,6.0,6.0,6.0,6.0,6.0,6.0,6.0,5.0,2.0,6.0,1.0,,5.0,1.0,1.0,5.0,5.0,4.0,4.0,,5.0,5.0,1.0,,3.0,5.0,5.0,3.0,6.0,5.0,,1.9,2.0,2.666667,2.666667,5.333333,4.333333,5.666667,6.0
45551,844,2020-04-04 23:23:15,EN,48,Female,"College degree, bachelor, master",College degree,Full time employed,United States,yes,Colorado,Single,0.0,Yes,Isolated,0.0,0.0,Program A,,Yes,4.0,4.0,3.0,5.0,3.0,2.0,4.0,4.0,1.0,2.0,5.0,5.0,5.0,7.0,9.0,0.0,2.0,4.0,1.0,8.0,0.0,6.0,4.0,6.0,6.0,6.0,0.0,6.0,6.0,6.0,2.0,3.0,4.0,2.0,2.0,6.0,2.0,2.0,6.0,4.0,6.0,6.0,1.0,4.0,5.0,5.0,2.0,5.0,3.0,1.0,99.0,5.0,4.0,6.0,1.0,99.0,99.0,6.0,5.0,6.0,6.0,3.0,1.0,2.0,2.0,6.0,5.0,5.0,1.0,1.0,6.0,6.0,Very concerned about future political effects of this.,3.0,6.0,5.0,3.0,2.0,5.0,3.0,2.0,5.0,4.0,1.0,1.0,6.0,1.0,3.0,6.0,4.0,2.0,3.0,5.0,6.0,1.0,2.0,6.0,1.0,5.0,,1.0,3.0,6.0,2.0,5.0,3.0,,2.4,5.0,1.666667,1.666667,5.333333,5.0,5.0,3.8
45636,1891,2020-04-04 23:28:04,EN,48,Female,"College degree, bachelor, master",College degree,Not employed,United States,no,Iowa,Married/cohabiting,1.0,Yes,Life carries on with minor changes,1.0,1.0,,Program C,Not sure,4.0,4.0,4.0,4.0,3.0,3.0,3.0,3.0,4.0,3.0,3.0,3.0,4.0,8.0,7.0,0.0,6.0,8.0,4.0,8.0,0.0,6.0,6.0,6.0,6.0,6.0,0.0,5.0,5.0,5.0,2.0,4.0,4.0,2.0,2.0,5.0,5.0,6.0,3.0,4.0,6.0,5.0,2.0,5.0,5.0,4.0,2.0,5.0,6.0,5.0,6.0,6.0,4.0,5.0,5.0,5.0,6.0,5.0,4.0,6.0,6.0,5.0,5.0,4.0,4.0,4.0,5.0,5.0,2.0,1.0,5.0,5.0,Governor not putting a stay at home act is very stressful. Republicans care more for economy than people! Iowa :-(,5.0,5.0,4.0,4.0,5.0,5.0,5.0,5.0,4.0,5.0,3.0,5.0,5.0,3.0,4.0,5.0,2.0,4.0,5.0,4.0,5.0,4.0,4.0,5.0,5.0,1.0,,4.0,6.0,5.0,4.0,5.0,3.0,Trump is an idiot and will be the death of us all because of his incompetence!,3.3,3.333333,2.0,5.0,5.0,5.0,4.666667,4.7
45795,1561,2020-04-04 22:54:15,EN,61,Female,PhD/Doctorate,Up to 9 years of school,Full time employed,United States,no,California,Single,1.0,No,Life carries on with minor changes,1.0,0.0,,Program D,No,1.0,1.0,2.0,5.0,1.0,1.0,1.0,5.0,1.0,1.0,1.0,1.0,1.0,9.0,10.0,1.0,9.0,9.0,5.0,10.0,1.0,6.0,6.0,6.0,6.0,6.0,1.0,6.0,6.0,6.0,2.0,4.0,1.0,6.0,1.0,6.0,6.0,6.0,1.0,6.0,6.0,6.0,3.0,5.0,6.0,6.0,1.0,6.0,6.0,99.0,1.0,2.0,4.0,4.0,5.0,3.0,1.0,6.0,6.0,5.0,4.0,5.0,4.0,4.0,1.0,1.0,6.0,5.0,4.0,1.0,99.0,5.0,,6.0,6.0,6.0,6.0,6.0,6.0,6.0,6.0,6.0,6.0,2.0,5.0,6.0,6.0,6.0,3.0,1.0,1.0,2.0,6.0,6.0,6.0,6.0,6.0,6.0,6.0,,4.0,2.0,1.0,2.0,2.0,6.0,,1.9,1.0,2.666667,6.0,6.0,5.0,6.0,6.0
45796,1423,2020-04-04 22:51:45,EN,54,Female,"College degree, bachelor, master",Up to 12 years of school,Full time employed,United States,no,Arizona,Single,0.0,Yes,Isolated,0.0,0.0,Program A,,No,3.0,2.0,3.0,4.0,4.0,2.0,4.0,5.0,3.0,2.0,3.0,1.0,3.0,5.0,8.0,1.0,6.0,6.0,4.0,10.0,1.0,6.0,6.0,6.0,6.0,6.0,0.0,5.0,5.0,6.0,2.0,2.0,5.0,5.0,2.0,4.0,4.0,2.0,5.0,5.0,6.0,6.0,2.0,4.0,5.0,4.0,4.0,5.0,1.0,2.0,99.0,99.0,4.0,1.0,99.0,99.0,99.0,6.0,5.0,5.0,6.0,5.0,1.0,2.0,4.0,2.0,2.0,4.0,3.0,2.0,5.0,2.0,I'm distressed by the stupidity of those who are not taking this seriously and putting the lives of others at risk. And I worry for the people who are forced to work with the public - those in healthcare and crucial businesses.,4.0,5.0,4.0,4.0,4.0,5.0,4.0,5.0,5.0,4.0,1.0,5.0,5.0,4.0,5.0,5.0,2.0,2.0,5.0,5.0,4.0,2.0,5.0,5.0,2.0,4.0,I have pets which I care for and who help to keep me balanced.  Without them the response to this would be very different.  You should have included interaction with animals/pets,1.0,2.0,4.0,4.0,2.0,4.0,"I find the disruption of routine to be a factor that moderately bothers me.  I'm not a social butterfly and I'm tech savvy, so many aspects of this have not bothered me in those ways.  It's the actions of others and my concern that if I develop COVID my elderly parents will have no one to help them.",2.2,2.333333,3.333333,2.666667,5.666667,4.666667,4.0,4.4
45967,3456,2020-04-04 22:57:11,SME,55,Female,PhD/Doctorate,PhD/Doctorate,Student,United States,yes,Texas,Single,1.0,,Isolated,0.0,0.0,Program B,,No,3.0,2.0,3.0,4.0,4.0,2.0,5.0,4.0,3.0,2.0,3.0,1.0,3.0,4.0,10.0,7.0,10.0,7.0,7.0,10.0,7.0,5.0,2.0,4.0,2.0,2.0,7.0,6.0,6.0,6.0,1.0,2.0,6.0,5.0,2.0,6.0,4.0,4.0,5.0,6.0,6.0,6.0,1.0,5.0,5.0,6.0,1.0,6.0,1.0,1.0,99.0,4.0,3.0,1.0,4.0,99.0,99.0,4.0,4.0,4.0,4.0,5.0,4.0,5.0,4.0,2.0,2.0,2.0,3.0,1.0,5.0,5.0,"No hay inguna informacion de gente con enfermedades inmunes si han logrado salvarse o toda se mueren. Informacion de como mejorar nuestro sisema inmune. 3.- los muchas jovenes actuan de manero irresponsable. 4.- Dar explicaciones mas efivientes a la gente que tiene poca educacion porque al.parecer no entienden las instrucciones y las reglas que se tienen que seguir. 7.- Se ve que los paises no estan preparados para lidiar con una pandemia a nivel mundial. 8.- Los paises no estan preparados para proporcionar alimentos a las gentes que los necesitan. 9.- La mayoria de las personas que viven al dia como pueden hacer para no poner en riesgo su vida.. 10.- Como los alimentos estan mal repartidos en.la mayoria de los paises en vias de desarrollo se van a dar muchisimos robos y la policia no podra hacer nada.11.- Los sistemas de salud e hihiene de todos los paises carecen de materiales necesarios para trabajar co.o ellis se merecen. 12.-No hay suficiente gente en los sistemas de salud, segurdas. 12.- Las poblaciones tienen que ser educadas. 13.- Las personas con enfermedades mentales se encuentran a la deriba.  .",6.0,6.0,6.0,6.0,6.0,5.0,6.0,4.0,5.0,6.0,4.0,5.0,6.0,5.0,5.0,6.0,4.0,4.0,4.0,5.0,5.0,5.0,5.0,6.0,6.0,4.0,"Hacer ejercicio, leer, pintar, realuzar diferentes pasatiempos",6.0,6.0,6.0,6.0,6.0,2.0,"En general mucha gente no cree o no sabe como seguir las reglas que se le dan al publico. No se porque no lo hacen pero en espicial los jovenes son.lis que mas desafian las reglas,  a ellos no les importa a quieres afecten.",2.2,2.333333,2.666667,3.333333,6.0,5.333333,6.0,5.6
45984,946,2020-04-04 22:11:21,EN,40,Female,"College degree, bachelor, master",Some College or equivalent,Not employed,United States,no,South Carolina,Married/cohabiting,2.0,Yes,Isolated,2.0,0.0,,Program D,No,3.0,3.0,4.0,3.0,2.0,2.0,4.0,3.0,3.0,2.0,3.0,4.0,4.0,6.0,8.0,9.0,9.0,9.0,7.0,10.0,9.0,5.0,5.0,5.0,5.0,5.0,5.0,6.0,6.0,6.0,1.0,4.0,5.0,5.0,4.0,4.0,4.0,4.0,3.0,5.0,5.0,4.0,1.0,5.0,5.0,5.0,3.0,5.0,5.0,2.0,4.0,5.0,6.0,4.0,6.0,3.0,1.0,6.0,2.0,5.0,6.0,5.0,2.0,2.0,5.0,4.0,5.0,5.0,3.0,2.0,6.0,2.0,,6.0,2.0,6.0,6.0,6.0,4.0,6.0,6.0,5.0,6.0,5.0,5.0,5.0,2.0,5.0,5.0,2.0,2.0,2.0,4.0,5.0,6.0,2.0,6.0,6.0,6.0,,5.0,5.0,2.0,3.0,4.0,5.0,Not having a national lockdown in the United States makes me feel like we aren't doing all we can do to prevent further spread of the virus.,2.9,3.666667,4.0,4.0,4.666667,5.333333,4.666667,5.3
45996,1013,2020-04-05 22:11:19,EN,52,Female,PhD/Doctorate,Some College or equivalent,Self-employed,United States,no,Texas,Married/cohabiting,2.0,Yes,Isolated,3.0,0.0,Program A,,No,4.0,4.0,4.0,4.0,2.0,3.0,3.0,3.0,4.0,3.0,1.0,3.0,3.0,8.0,10.0,6.0,8.0,8.0,6.0,8.0,6.0,6.0,6.0,6.0,6.0,6.0,3.0,5.0,5.0,6.0,4.0,5.0,4.0,4.0,4.0,5.0,4.0,5.0,3.0,5.0,4.0,3.0,2.0,4.0,5.0,5.0,1.0,5.0,6.0,6.0,6.0,6.0,5.0,6.0,3.0,3.0,99.0,6.0,6.0,5.0,5.0,4.0,6.0,6.0,4.0,2.0,6.0,4.0,4.0,5.0,6.0,4.0,,6.0,6.0,6.0,6.0,6.0,6.0,6.0,6.0,5.0,6.0,3.0,5.0,5.0,5.0,4.0,2.0,1.0,1.0,6.0,6.0,4.0,5.0,6.0,5.0,4.0,4.0,,6.0,5.0,4.0,3.0,3.0,6.0,,3.4,2.333333,3.333333,4.333333,4.0,4.666667,5.333333,5.9
46641,169,2020-04-05 20:05:15,EN,53,Female,"College degree, bachelor, master",Up to 12 years of school,Full time employed,United States,no,NJ,Single,1.0,No,Life carries on with minor changes,,,,,,,,,,,,,,,,,,,,,,,,,,,,,,,,,,,,,,,,,,,,,,,,,,,,,,,,,,,,,,,,,,,,,,,,,,,,,,,,,,,,,,,,,,,,,,,,,,,,,,,,,,,,,,,,,,,,,,,,
46668,2338,2020-04-04 20:37:48,EN,55,Female,"Some College, short continuing education or equivalent",,Not employed,United States,no,California,Married/cohabiting,4.0,Yes,Life carries on with minor changes,0.0,0.0,Program A,,Yes,3.0,4.0,5.0,3.0,3.0,3.0,3.0,3.0,3.0,4.0,3.0,3.0,2.0,3.0,6.0,4.0,5.0,5.0,2.0,4.0,1.0,6.0,6.0,6.0,6.0,6.0,3.0,5.0,6.0,6.0,2.0,5.0,1.0,6.0,6.0,4.0,6.0,5.0,2.0,6.0,6.0,6.0,1.0,6.0,6.0,6.0,2.0,6.0,6.0,6.0,5.0,6.0,5.0,5.0,5.0,5.0,99.0,5.0,5.0,6.0,6.0,6.0,5.0,5.0,6.0,5.0,5.0,6.0,6.0,6.0,6.0,4.0,,6.0,6.0,6.0,6.0,6.0,6.0,6.0,6.0,6.0,6.0,5.0,5.0,6.0,5.0,4.0,5.0,6.0,5.0,4.0,6.0,5.0,5.0,5.0,5.0,5.0,5.0,,5.0,4.0,4.0,5.0,4.0,2.0,More protection for nurses and doctors treating COVID-19 patients is needed please,3.4,2.666667,5.0,5.333333,6.0,6.0,5.666667,6.0
47419,861,2020-04-05 18:30:59,EN,22,Female,"Some College, short continuing education or equivalent",Some College or equivalent,Student,United States,no,Texas,Single,0.0,Yes,Isolated,2.0,0.0,Program B,,No,3.0,4.0,3.0,3.0,2.0,2.0,3.0,2.0,3.0,2.0,5.0,4.0,5.0,3.0,5.0,1.0,1.0,1.0,1.0,2.0,1.0,6.0,6.0,6.0,4.0,5.0,0.0,3.0,4.0,3.0,3.0,3.0,5.0,5.0,6.0,3.0,5.0,5.0,3.0,5.0,6.0,4.0,3.0,3.0,5.0,4.0,4.0,5.0,5.0,2.0,99.0,3.0,5.0,6.0,4.0,6.0,99.0,6.0,5.0,5.0,4.0,5.0,6.0,5.0,5.0,6.0,5.0,6.0,6.0,6.0,6.0,6.0,,5.0,5.0,5.0,4.0,4.0,2.0,5.0,5.0,3.0,5.0,1.0,5.0,5.0,4.0,5.0,6.0,1.0,4.0,5.0,3.0,2.0,5.0,5.0,4.0,5.0,4.0,,6.0,5.0,3.0,5.0,,3.0,,3.1,4.666667,5.0,4.666667,5.0,4.0,4.0,4.3
47545,1064,2020-04-05 18:17:17,EN,26,Female,"College degree, bachelor, master",Some College or equivalent,Part time employed,United States,yes,Texas,Single,0.0,No,Isolated,3.0,0.0,,Program C,No,3.0,3.0,4.0,3.0,2.0,4.0,4.0,2.0,3.0,4.0,4.0,4.0,5.0,5.0,6.0,3.0,6.0,7.0,7.0,8.0,2.0,5.0,5.0,5.0,5.0,6.0,2.0,5.0,5.0,5.0,4.0,3.0,3.0,4.0,4.0,5.0,5.0,2.0,5.0,5.0,5.0,5.0,2.0,3.0,6.0,4.0,3.0,5.0,1.0,5.0,99.0,1.0,2.0,3.0,5.0,6.0,2.0,6.0,2.0,4.0,4.0,6.0,6.0,1.0,4.0,6.0,6.0,4.0,4.0,4.0,6.0,6.0,,,,,,,,,,,,,,,,,,,,,,,,,,,,,,,,,,,,3.4,4.333333,3.333333,3.0,5.0,4.666667,4.333333,
47739,710,2020-04-04 17:48:53,EN,26,Female,"College degree, bachelor, master",PhD/Doctorate,Student,United States,no,Massachusetts,Single,0.0,Yes,Life carries on with minor changes,3.0,0.0,,Program D,No,2.0,3.0,5.0,3.0,2.0,3.0,3.0,2.0,3.0,3.0,3.0,1.0,3.0,7.0,10.0,3.0,8.0,7.0,10.0,10.0,0.0,5.0,5.0,5.0,6.0,5.0,0.0,6.0,6.0,6.0,1.0,3.0,3.0,6.0,5.0,3.0,4.0,1.0,5.0,4.0,3.0,1.0,4.0,5.0,5.0,6.0,2.0,6.0,1.0,6.0,99.0,1.0,4.0,5.0,4.0,4.0,99.0,6.0,6.0,6.0,6.0,6.0,6.0,6.0,4.0,4.0,6.0,4.0,6.0,3.0,6.0,1.0,,6.0,6.0,4.0,6.0,6.0,4.0,6.0,6.0,4.0,6.0,1.0,6.0,6.0,2.0,6.0,2.0,5.0,6.0,6.0,2.0,1.0,2.0,4.0,6.0,4.0,6.0,,5.0,1.0,1.0,6.0,1.0,1.0,,3.3,2.333333,5.0,2.333333,2.666667,4.333333,5.666667,5.4
47860,935,2020-04-04 17:40:31,EN,20,Female,"College degree, bachelor, master",Some College or equivalent,Student,United States,yes,Texas,Single,0.0,Not sure,Life carries on with minor changes,1.0,0.0,Program A,,Yes,3.0,3.0,3.0,3.0,4.0,3.0,2.0,3.0,3.0,3.0,2.0,2.0,2.0,5.0,5.0,4.0,5.0,5.0,7.0,8.0,8.0,6.0,5.0,5.0,6.0,6.0,5.0,6.0,6.0,5.0,5.0,3.0,6.0,5.0,6.0,6.0,5.0,4.0,4.0,5.0,5.0,3.0,4.0,5.0,5.0,5.0,4.0,5.0,5.0,5.0,5.0,5.0,5.0,5.0,5.0,5.0,5.0,4.0,5.0,5.0,5.0,5.0,5.0,5.0,5.0,5.0,5.0,5.0,4.0,5.0,5.0,5.0,,5.0,5.0,5.0,5.0,5.0,5.0,5.0,5.0,5.0,5.0,5.0,5.0,5.0,5.0,5.0,5.0,5.0,5.0,5.0,5.0,5.0,5.0,5.0,5.0,4.0,5.0,,5.0,5.0,5.0,5.0,5.0,5.0,"Yes, being around of many people",3.0,2.0,4.0,4.0,4.333333,4.333333,4.333333,5.0
48313,204,2020-04-05 16:50:02,EN,67,Female,"Some College, short continuing education or equivalent",Up to 12 years of school,Part time employed,United States,no,Pennsylvania,Married/cohabiting,0.0,Yes,Isolated,1.0,0.0,,,,4.0,2.0,2.0,5.0,4.0,1.0,5.0,5.0,1.0,1.0,1.0,1.0,1.0,,,,,,,,,,,,,,,,,,,,,,,,,,,,,,,,,,,,,,,,,,,,,,,,,,,,,,,,,,,,,,,,,,,,,,,,,,,,,,,,,,,,,,,,,,,,,,,1.6,1.0,,,,,,
48317,933,2020-04-04 16:59:50,EN,37,Female,PhD/Doctorate,College degree,Full time employed,United States,yes,CA,Single,0.0,No,Life carries on with minor changes,,,,Program D,No,2.0,2.0,3.0,3.0,3.0,2.0,5.0,4.0,1.0,1.0,1.0,1.0,1.0,8.0,9.0,5.0,5.0,7.0,1.0,1.0,3.0,6.0,6.0,6.0,6.0,6.0,0.0,5.0,6.0,6.0,1.0,2.0,5.0,5.0,5.0,4.0,5.0,5.0,1.0,6.0,6.0,6.0,1.0,6.0,6.0,5.0,2.0,5.0,3.0,5.0,99.0,2.0,3.0,2.0,1.0,2.0,99.0,6.0,3.0,2.0,4.0,5.0,3.0,2.0,2.0,3.0,2.0,2.0,6.0,3.0,6.0,6.0,,2.0,5.0,4.0,5.0,6.0,5.0,3.0,6.0,5.0,2.0,4.0,6.0,6.0,2.0,2.0,4.0,2.0,4.0,6.0,4.0,2.0,4.0,5.0,5.0,1.0,4.0,,4.0,4.0,5.0,6.0,5.0,2.0,,2.0,1.0,4.333333,5.333333,6.0,6.0,5.0,4.3
48379,129,2020-04-05 16:19:56,EN,28,Female,"College degree, bachelor, master",Some College or equivalent,Full time employed,United States,no,florida,Single,0.0,No,Isolated,0.0,0.0,,,,,,,,,,,,,,,,,,,,,,,,,,,,,,,,,,,,,,,,,,,,,,,,,,,,,,,,,,,,,,,,,,,,,,,,,,,,,,,,,,,,,,,,,,,,,,,,,,,,,,,,,,,,,,,,,,,,,,
48403,2663,2020-04-05 16:53:29,EN,58,Female,PhD/Doctorate,College degree,Self-employed,United States,yes,Texas,Single,0.0,No,Life carries on with minor changes,0.0,0.0,Program B,,No,1.0,4.0,1.0,5.0,3.0,4.0,5.0,2.0,2.0,2.0,1.0,1.0,1.0,7.0,9.0,0.0,9.0,10.0,8.0,10.0,2.0,6.0,6.0,6.0,6.0,6.0,2.0,6.0,5.0,5.0,1.0,6.0,2.0,6.0,1.0,5.0,3.0,3.0,4.0,5.0,6.0,5.0,2.0,4.0,6.0,6.0,2.0,5.0,6.0,2.0,99.0,3.0,1.0,2.0,99.0,99.0,99.0,4.0,2.0,6.0,6.0,3.0,1.0,2.0,1.0,1.0,1.0,1.0,1.0,1.0,1.0,1.0,,,,,,,,,,,,,,,,,,,,,,,,,,,,,,,,,,,,2.3,1.0,3.0,3.0,5.333333,5.0,5.333333,
48445,665,2020-04-04 16:05:03,EN,43,Male,"College degree, bachelor, master",PhD/Doctorate,Self-employed,United States,no,,Single,1.0,Yes,Isolated,2.0,1.0,,Program D,No,3.0,3.0,4.0,5.0,2.0,2.0,4.0,3.0,3.0,2.0,3.0,1.0,3.0,5.0,7.0,7.0,7.0,7.0,5.0,4.0,3.0,5.0,6.0,5.0,6.0,6.0,0.0,3.0,6.0,6.0,2.0,4.0,4.0,5.0,1.0,5.0,6.0,5.0,1.0,5.0,5.0,5.0,2.0,5.0,6.0,5.0,1.0,6.0,5.0,5.0,2.0,5.0,5.0,2.0,1.0,3.0,5.0,6.0,5.0,5.0,6.0,5.0,1.0,2.0,2.0,4.0,2.0,2.0,5.0,5.0,5.0,2.0,,5.0,5.0,5.0,5.0,5.0,5.0,5.0,5.0,5.0,4.0,2.0,2.0,6.0,2.0,6.0,3.0,4.0,5.0,5.0,5.0,5.0,5.0,5.0,6.0,2.0,5.0,,5.0,5.0,5.0,5.0,6.0,2.0,,2.7,2.333333,2.666667,5.666667,5.0,5.333333,5.666667,4.9
48619,1363,2020-04-04 15:24:07,EN,61,Male,"College degree, bachelor, master",College degree,Self-employed,United States,no,MI,Married/cohabiting,0.0,Yes,Life carries on with minor changes,2.0,0.0,,Program D,No,3.0,4.0,1.0,5.0,3.0,1.0,5.0,3.0,4.0,3.0,1.0,3.0,3.0,6.0,9.0,3.0,4.0,9.0,2.0,9.0,2.0,6.0,6.0,6.0,6.0,6.0,1.0,6.0,6.0,6.0,1.0,3.0,1.0,5.0,1.0,6.0,4.0,4.0,4.0,4.0,6.0,4.0,4.0,6.0,5.0,6.0,1.0,5.0,2.0,3.0,99.0,6.0,4.0,3.0,1.0,4.0,99.0,6.0,5.0,6.0,5.0,5.0,1.0,1.0,1.0,2.0,2.0,4.0,1.0,1.0,3.0,1.0,,6.0,6.0,6.0,6.0,6.0,6.0,6.0,6.0,6.0,6.0,6.0,5.0,5.0,2.0,4.0,3.0,1.0,1.0,5.0,5.0,5.0,5.0,5.0,5.0,1.0,6.0,,4.0,4.0,5.0,5.0,2.0,2.0,"The information from states governors, Cuomo, and states such as New York is far more valuable to me than the wishy washy, contradicting, waffling from President Trump and company.  Dr Anthony Fauchi is incredible! Really a shame he is saddled with Trump & company!",2.4,2.333333,2.333333,3.666667,4.666667,4.666667,5.666667,6.0
48651,636,2020-04-04 15:06:01,EN,50,Female,"College degree, bachelor, master",College degree,Full time employed,United States,no,Vermont,Married/cohabiting,0.0,No,Isolated,1.0,0.0,Program A,,No,3.0,3.0,5.0,4.0,3.0,4.0,4.0,2.0,1.0,3.0,2.0,4.0,5.0,8.0,10.0,6.0,10.0,10.0,9.0,10.0,2.0,6.0,6.0,6.0,6.0,6.0,0.0,6.0,6.0,6.0,4.0,3.0,3.0,5.0,6.0,4.0,5.0,3.0,5.0,5.0,6.0,4.0,4.0,6.0,4.0,6.0,3.0,4.0,4.0,4.0,99.0,99.0,2.0,6.0,99.0,2.0,99.0,4.0,5.0,3.0,3.0,6.0,4.0,3.0,1.0,5.0,6.0,99.0,1.0,1.0,5.0,3.0,,5.0,5.0,5.0,4.0,6.0,5.0,5.0,6.0,4.0,6.0,4.0,2.0,6.0,2.0,6.0,4.0,,,4.0,2.0,3.0,5.0,6.0,3.0,,4.0,,4.0,5.0,2.0,1.0,1.0,1.0,,3.0,3.666667,4.666667,3.333333,5.0,4.333333,4.666667,5.1
48741,2187,2020-04-04 15:12:31,EN,20,Female,"College degree, bachelor, master",Up to 12 years of school,Student,United States,yes,Texas,Single,0.0,Yes,Isolated,1.0,0.0,,Program C,No,5.0,5.0,5.0,1.0,3.0,5.0,4.0,2.0,4.0,4.0,3.0,5.0,5.0,0.0,3.0,2.0,7.0,5.0,8.0,10.0,5.0,5.0,6.0,4.0,6.0,6.0,5.0,6.0,6.0,6.0,2.0,2.0,2.0,6.0,6.0,3.0,3.0,3.0,6.0,6.0,5.0,3.0,3.0,4.0,4.0,3.0,6.0,6.0,6.0,1.0,99.0,99.0,5.0,99.0,1.0,99.0,99.0,99.0,99.0,99.0,99.0,6.0,6.0,6.0,99.0,6.0,6.0,99.0,1.0,1.0,3.0,6.0,,4.0,3.0,1.0,1.0,2.0,3.0,6.0,1.0,1.0,6.0,3.0,2.0,2.0,1.0,2.0,6.0,1.0,1.0,6.0,6.0,4.0,6.0,1.0,2.0,1.0,4.0,,6.0,4.0,6.0,1.0,2.0,4.0,,4.2,4.333333,5.333333,2.333333,4.666667,4.0,3.333333,2.8
49019,1490,2020-04-04 14:11:24,EN,50,Female,"College degree, bachelor, master",College degree,Part time employed,United States,no,NY,Married/cohabiting,2.0,Yes,Life carries on with minor changes,2.0,0.0,,Program D,Not sure,3.0,3.0,5.0,4.0,3.0,2.0,4.0,3.0,5.0,2.0,1.0,1.0,2.0,7.0,9.0,5.0,3.0,4.0,3.0,8.0,2.0,6.0,5.0,6.0,6.0,6.0,0.0,5.0,6.0,6.0,2.0,2.0,4.0,6.0,5.0,4.0,2.0,3.0,4.0,5.0,6.0,5.0,2.0,5.0,4.0,6.0,4.0,5.0,4.0,3.0,4.0,4.0,5.0,3.0,2.0,2.0,99.0,6.0,4.0,5.0,6.0,5.0,5.0,3.0,4.0,2.0,4.0,2.0,4.0,5.0,5.0,3.0,,6.0,5.0,5.0,6.0,6.0,5.0,6.0,6.0,4.0,6.0,3.0,4.0,5.0,2.0,3.0,5.0,3.0,4.0,3.0,5.0,5.0,5.0,3.0,4.0,4.0,3.0,,3.0,5.0,5.0,5.0,3.0,4.0,,3.0,1.333333,4.666667,2.666667,5.333333,4.666667,4.666667,5.5
49147,1055,2020-04-04 13:41:23,EN,55,Male,"College degree, bachelor, master",College degree,Full time employed,United States,yes,California,Married/cohabiting,1.0,Yes,Isolated,1.0,1.0,,Program C,No,3.0,4.0,3.0,3.0,3.0,3.0,4.0,3.0,2.0,3.0,3.0,3.0,4.0,8.0,9.0,3.0,4.0,5.0,5.0,1.0,2.0,5.0,5.0,4.0,3.0,3.0,3.0,5.0,5.0,5.0,2.0,5.0,4.0,5.0,2.0,5.0,2.0,1.0,5.0,4.0,4.0,4.0,3.0,4.0,5.0,3.0,3.0,5.0,4.0,5.0,5.0,5.0,2.0,4.0,1.0,5.0,5.0,2.0,2.0,5.0,6.0,3.0,2.0,1.0,5.0,4.0,5.0,2.0,2.0,2.0,5.0,2.0,,3.0,4.0,2.0,3.0,3.0,3.0,3.0,3.0,3.0,3.0,4.0,4.0,2.0,4.0,5.0,2.0,5.0,4.0,5.0,3.0,4.0,4.0,4.0,4.0,1.0,5.0,,2.0,3.0,2.0,4.0,3.0,3.0,,2.9,3.333333,3.0,1.666667,4.0,4.333333,4.0,3.0
49156,12215,2020-04-04 16:45:12,EN,31,Female,"College degree, bachelor, master",Up to 12 years of school,Full time employed,United States,yes,Hawaii,Married/cohabiting,0.0,Yes,Life carries on with minor changes,1.0,0.0,Program A,,No,3.0,2.0,3.0,5.0,3.0,1.0,4.0,4.0,1.0,1.0,1.0,1.0,1.0,6.0,9.0,4.0,5.0,4.0,2.0,0.0,4.0,1.0,5.0,5.0,5.0,6.0,1.0,6.0,6.0,6.0,1.0,2.0,5.0,6.0,6.0,4.0,3.0,2.0,5.0,1.0,5.0,6.0,3.0,4.0,6.0,6.0,4.0,6.0,2.0,2.0,,4.0,6.0,4.0,99.0,1.0,99.0,6.0,5.0,2.0,2.0,99.0,1.0,1.0,4.0,1.0,4.0,1.0,4.0,1.0,2.0,6.0,,6.0,6.0,6.0,6.0,6.0,5.0,6.0,6.0,5.0,6.0,4.0,2.0,5.0,2.0,5.0,4.0,4.0,4.0,5.0,3.0,5.0,5.0,6.0,5.0,5.0,4.0,,2.0,5.0,6.0,3.0,4.0,5.0,"More hackers and spamming activities than usual --  Identity theft, internet safety might be concerning soon.",1.9,1.0,5.0,2.333333,4.0,4.666667,5.0,5.8
49160,1017,2020-04-04 13:37:18,EN,43,Female,"College degree, bachelor, master",College degree,Full time employed,United States,yes,California,Single,0.0,Not sure,Life carries on with minor changes,0.0,0.0,,Program C,No,3.0,2.0,4.0,4.0,3.0,3.0,4.0,4.0,2.0,3.0,,3.0,3.0,5.0,8.0,4.0,7.0,7.0,3.0,4.0,3.0,5.0,6.0,5.0,6.0,6.0,3.0,5.0,6.0,6.0,1.0,3.0,2.0,6.0,4.0,5.0,3.0,4.0,5.0,4.0,6.0,2.0,2.0,4.0,6.0,6.0,1.0,6.0,3.0,2.0,99.0,5.0,4.0,3.0,1.0,99.0,99.0,5.0,5.0,5.0,5.0,5.0,1.0,2.0,1.0,3.0,4.0,1.0,1.0,2.0,4.0,5.0,,1.0,6.0,5.0,5.0,5.0,6.0,6.0,6.0,6.0,2.0,4.0,5.0,5.0,4.0,4.0,1.0,5.0,4.0,4.0,5.0,4.0,5.0,3.0,5.0,5.0,3.0,,2.0,2.0,2.0,2.0,2.0,2.0,,2.6,3.0,4.0,3.0,4.0,5.0,6.0,4.8
49243,2795,2020-04-05 13:51:14,EN,38,Female,"College degree, bachelor, master",Some College or equivalent,Full time employed,United States,yes,California,Married/cohabiting,2.0,Yes,Isolated,1.0,2.0,,Program D,No,2.0,3.0,4.0,4.0,3.0,5.0,4.0,4.0,3.0,1.0,3.0,3.0,4.0,9.0,10.0,2.0,6.0,5.0,2.0,9.0,1.0,4.0,6.0,5.0,6.0,6.0,0.0,6.0,6.0,6.0,2.0,5.0,4.0,2.0,2.0,5.0,5.0,5.0,2.0,6.0,6.0,6.0,2.0,5.0,5.0,5.0,2.0,5.0,2.0,6.0,4.0,2.0,5.0,4.0,99.0,2.0,6.0,5.0,2.0,6.0,5.0,6.0,4.0,3.0,2.0,4.0,2.0,99.0,6.0,1.0,5.0,5.0,"I worry about getting sick, and my husband getting sick (and he has poor health), and who will then take care of our two young children? We are not from the USA and don't have close friends or family here. As long as we're not sick now, we're hanging in there, but it costs of lot of energy to both work full time jobs (which we luckily can do virtually) and take care of our kids. We do enjoy seeing our kids (1 and 5 year old) more.",4.0,5.0,4.0,5.0,6.0,5.0,6.0,6.0,5.0,4.0,2.0,1.0,6.0,1.0,5.0,4.0,1.0,1.0,3.0,2.0,5.0,4.0,5.0,5.0,1.0,3.0,"When you talk about family, do you mean the people with whom I share my house with (husband and kids) or family that does not live in the same house?",2.0,6.0,6.0,4.0,4.0,4.0,"I find it fascinating how different countries respond differently to this crisis, and I learn most by following foreign and my own country's (The Netherlands) news channels.   For my mental well-being I am practicing meditation to keep my mind calm, and I'm planning to keep up with that practice once things go back to normal. Also I enjoy hardly spending money and enjoying the basics in life, a walk in my street and playing with my kids. I am very well aware that I am a very privileged person, and both me and my husband have good jobs. I feel so sad for all people in the USA who live pay-check to pay-check and who have lost their jobs. The promises the government made (the checks) are not a sustainable solution (especially when you live in SF Bay Area). I fear for everyone losing their jobs, and may becoming homeless. This is a true national crisis and the government is not responding thoroughly. The system is broken, I wish the USA had a wise leader who would use this time to reset, how we look at the world, about consumerism, wealth distribution, etc. , and then be an example for the rest of the world. These things are out of my control, but when I think about it too much it makes me very angry and upset.",2.7,3.333333,2.0,5.0,6.0,5.0,5.0,5.0
49310,2860,2020-04-04 13:40:34,EN,38,Male,"College degree, bachelor, master",Some College or equivalent,Full time employed,United States,no,Wisconsin,Married/cohabiting,1.0,Yes,Isolated,1.0,1.0,,Program C,No,1.0,1.0,3.0,5.0,4.0,1.0,5.0,5.0,1.0,1.0,1.0,1.0,1.0,2.0,5.0,7.0,1.0,3.0,7.0,0.0,7.0,5.0,5.0,5.0,5.0,2.0,5.0,6.0,6.0,6.0,1.0,1.0,6.0,5.0,3.0,6.0,5.0,6.0,4.0,5.0,5.0,6.0,2.0,2.0,4.0,6.0,2.0,6.0,4.0,99.0,99.0,5.0,5.0,1.0,99.0,99.0,2.0,4.0,99.0,6.0,5.0,6.0,99.0,99.0,99.0,1.0,6.0,2.0,4.0,99.0,99.0,1.0,,4.0,6.0,4.0,5.0,5.0,5.0,4.0,4.0,4.0,3.0,5.0,4.0,4.0,4.0,4.0,5.0,3.0,4.0,5.0,4.0,5.0,4.0,4.0,4.0,3.0,4.0,,6.0,5.0,1.0,4.0,5.0,3.0,"We both lost our jobs. We had just signed a lease that we had to abandon in another state, we have no idea what is going to happen with that since it was where I was working living due to the internet gig speed in that location. Now that job doesnt exist, but the lease was signed... what are the ramifications going to be ???",1.3,1.0,3.0,4.666667,5.333333,3.666667,5.666667,4.4
49311,630,2020-04-04 13:03:24,EN,23,Female,"College degree, bachelor, master",College degree,Student,United States,no,NJ,Single,0.0,Yes,Isolated,3.0,0.0,,Program D,Not sure,3.0,3.0,3.0,3.0,2.0,3.0,3.0,2.0,3.0,3.0,4.0,3.0,4.0,4.0,7.0,4.0,4.0,4.0,6.0,7.0,3.0,4.0,6.0,5.0,6.0,6.0,3.0,5.0,5.0,5.0,5.0,3.0,4.0,5.0,5.0,4.0,6.0,5.0,2.0,3.0,5.0,2.0,2.0,5.0,5.0,5.0,3.0,5.0,99.0,6.0,99.0,5.0,5.0,6.0,2.0,6.0,99.0,5.0,5.0,6.0,5.0,5.0,6.0,6.0,5.0,6.0,5.0,5.0,5.0,2.0,6.0,4.0,,5.0,5.0,5.0,6.0,5.0,5.0,5.0,5.0,4.0,5.0,2.0,5.0,5.0,5.0,5.0,2.0,2.0,2.0,5.0,3.0,2.0,2.0,4.0,5.0,2.0,4.0,,5.0,5.0,5.0,4.0,5.0,4.0,,3.2,3.666667,4.333333,5.333333,3.333333,5.0,4.666667,5.0
49322,622,2020-04-04 13:00:46,EN,40,Male,"Some College, short continuing education or equivalent",Some College or equivalent,Full time employed,United States,no,Oregon,Married/cohabiting,0.0,Yes,Isolated,1.0,0.0,,Program C,Not sure,4.0,3.0,5.0,4.0,3.0,2.0,3.0,3.0,3.0,3.0,3.0,3.0,3.0,1.0,4.0,,4.0,4.0,,8.0,,4.0,6.0,6.0,6.0,6.0,,6.0,6.0,6.0,1.0,1.0,4.0,6.0,6.0,4.0,1.0,1.0,6.0,6.0,6.0,6.0,2.0,6.0,6.0,6.0,2.0,5.0,4.0,1.0,99.0,5.0,5.0,1.0,1.0,1.0,1.0,6.0,4.0,6.0,6.0,6.0,1.0,1.0,1.0,1.0,4.0,3.0,2.0,1.0,5.0,5.0,,6.0,6.0,6.0,4.0,6.0,6.0,6.0,6.0,6.0,6.0,1.0,2.0,2.0,4.0,1.0,6.0,1.0,2.0,6.0,5.0,6.0,5.0,6.0,4.0,1.0,1.0,,1.0,6.0,6.0,2.0,2.0,1.0,,3.1,3.0,5.0,1.0,6.0,5.666667,5.333333,5.8
49356,443,2020-04-04 12:52:02,EN,34,Male,"College degree, bachelor, master",College degree,Full time employed,United States,no,Oklahoma,Married/cohabiting,0.0,Yes,Isolated,2.0,2.0,,Program D,No,2.0,4.0,4.0,4.0,3.0,2.0,4.0,5.0,3.0,2.0,2.0,2.0,4.0,1.0,2.0,2.0,1.0,2.0,3.0,2.0,1.0,6.0,5.0,3.0,3.0,3.0,1.0,5.0,5.0,5.0,2.0,1.0,5.0,4.0,5.0,4.0,3.0,5.0,3.0,4.0,3.0,4.0,5.0,2.0,2.0,5.0,3.0,4.0,5.0,5.0,3.0,6.0,4.0,2.0,1.0,2.0,3.0,5.0,3.0,5.0,5.0,4.0,2.0,2.0,2.0,2.0,2.0,3.0,2.0,2.0,3.0,3.0,,3.0,4.0,4.0,3.0,4.0,4.0,3.0,3.0,4.0,3.0,1.0,2.0,2.0,2.0,3.0,4.0,2.0,5.0,2.0,4.0,4.0,4.0,4.0,4.0,1.0,4.0,,4.0,6.0,5.0,2.0,3.0,2.0,,2.5,2.666667,4.0,4.0,3.666667,2.0,4.333333,3.5
49391,825,2020-04-05 12:53:04,EN,43,Female,"Some College, short continuing education or equivalent",College degree,Part time employed,United States,no,California,Married/cohabiting,3.0,Yes,Life carries on with minor changes,2.0,1.0,Program A,,Yes,3.0,3.0,3.0,4.0,3.0,3.0,3.0,3.0,3.0,3.0,1.0,1.0,3.0,2.0,7.0,,,,3.0,3.0,0.0,5.0,5.0,5.0,5.0,5.0,,5.0,5.0,5.0,4.0,4.0,2.0,3.0,2.0,4.0,4.0,4.0,2.0,4.0,5.0,4.0,2.0,4.0,4.0,2.0,4.0,4.0,,,,,,,,,,,,,,,,,,,,,,,,,,,,,,,,,,,,,,,,,,,,,,,,,,,,,,,,,,,,2.9,1.666667,2.666667,4.333333,4.333333,4.333333,3.0,
49397,362,2020-04-05 12:44:20,EN,65,Female,"College degree, bachelor, master",College degree,Retired,United States,no,Michigan,Married/cohabiting,1.0,Yes,Isolated,1.0,0.0,,Program D,No,2.0,3.0,2.0,4.0,3.0,2.0,4.0,3.0,2.0,2.0,3.0,2.0,3.0,,,,,,,,,,,,,,,,,,,,,,,,,,,,,,,,,,,,,,,,,,,,,,,,,,,,,,,,,,,,,,,,,,,,,,,,,,,,,,,,,,,,,,,,,,,,,,,2.3,2.666667,,,,,,
49422,1098,2020-04-04 12:50:27,SME,44,Female,PhD/Doctorate,College degree,Full time employed,United States,yes,Texas,Divorced/widowed,0.0,Yes,Life carries on with minor changes,,,,,,2.0,1.0,2.0,5.0,5.0,1.0,5.0,2.0,1.0,1.0,1.0,2.0,2.0,5.0,8.0,5.0,2.0,5.0,5.0,6.0,3.0,5.0,6.0,6.0,6.0,6.0,0.0,6.0,6.0,5.0,1.0,2.0,5.0,3.0,2.0,6.0,6.0,5.0,6.0,5.0,6.0,5.0,3.0,4.0,5.0,6.0,1.0,6.0,6.0,4.0,6.0,5.0,4.0,2.0,1.0,1.0,99.0,6.0,2.0,5.0,1.0,5.0,1.0,1.0,5.0,2.0,1.0,3.0,3.0,5.0,4.0,1.0,,6.0,6.0,6.0,6.0,6.0,5.0,6.0,6.0,6.0,6.0,4.0,6.0,6.0,6.0,6.0,6.0,2.0,1.0,6.0,6.0,4.0,5.0,6.0,6.0,6.0,4.0,,2.0,2.0,2.0,2.0,2.0,3.0,Desabasto de artículos de limpieza y protección para evitar el contagio,1.5,1.666667,2.0,4.0,5.333333,4.333333,6.0,5.9
49452,581,2020-04-04 12:33:48,EN,45,Female,"College degree, bachelor, master",PhD/Doctorate,Full time employed,United States,no,Caifornia,Single,0.0,Yes,Isolated,0.0,0.0,,Program D,No,3.0,3.0,4.0,4.0,3.0,4.0,4.0,3.0,2.0,3.0,4.0,3.0,4.0,7.0,9.0,3.0,7.0,8.0,5.0,10.0,3.0,4.0,5.0,4.0,6.0,5.0,1.0,6.0,5.0,5.0,1.0,4.0,2.0,3.0,4.0,4.0,2.0,3.0,4.0,4.0,4.0,2.0,5.0,3.0,3.0,5.0,4.0,5.0,1.0,5.0,99.0,3.0,3.0,4.0,99.0,99.0,99.0,5.0,4.0,4.0,4.0,2.0,1.0,2.0,2.0,5.0,4.0,3.0,4.0,1.0,5.0,4.0,,6.0,4.0,4.0,3.0,4.0,4.0,5.0,2.0,5.0,6.0,4.0,3.0,5.0,3.0,4.0,5.0,2.0,3.0,4.0,4.0,4.0,4.0,3.0,4.0,3.0,5.0,Medication,3.0,4.0,4.0,3.0,3.0,2.0,,2.9,3.666667,3.333333,2.666667,3.333333,2.666667,4.333333,4.3
49519,1931,2020-04-04 12:45:16,EN,48,Female,"College degree, bachelor, master",Some College or equivalent,Full time employed,United States,no,California,Single,0.0,Yes,Isolated,4.0,0.0,Program A,,Yes,1.0,3.0,2.0,4.0,3.0,2.0,5.0,4.0,2.0,1.0,3.0,3.0,4.0,7.0,9.0,0.0,4.0,5.0,0.0,5.0,0.0,6.0,6.0,6.0,6.0,6.0,1.0,5.0,4.0,5.0,3.0,3.0,2.0,2.0,1.0,5.0,4.0,2.0,4.0,4.0,6.0,6.0,4.0,5.0,6.0,6.0,5.0,5.0,1.0,5.0,99.0,4.0,5.0,3.0,99.0,6.0,99.0,5.0,6.0,6.0,6.0,6.0,99.0,3.0,2.0,3.0,4.0,4.0,4.0,5.0,3.0,6.0,,4.0,6.0,6.0,5.0,5.0,6.0,5.0,5.0,6.0,4.0,2.0,4.0,5.0,4.0,6.0,6.0,2.0,3.0,6.0,2.0,4.0,4.0,4.0,3.0,1.0,4.0,,2.0,4.0,4.0,4.0,4.0,5.0,"In the U.S. our medical system is so broken that even if people survive the disease, they'll likely be bankrupt because of having to stay in the hospital. I fear losing my life savings because I need to go to a hospital.",1.9,3.333333,1.666667,3.0,5.333333,4.666667,4.333333,5.2
49558,1141,2020-04-04 12:23:41,EN,43,Female,"College degree, bachelor, master",College degree,Full time employed,United States,no,Virginia,Married/cohabiting,2.0,Yes,Isolated,1.0,2.0,Program A,,No,3.0,3.0,4.0,4.0,3.0,2.0,4.0,3.0,4.0,3.0,3.0,3.0,3.0,4.0,6.0,1.0,6.0,5.0,5.0,8.0,2.0,5.0,6.0,5.0,6.0,5.0,1.0,4.0,4.0,4.0,2.0,3.0,4.0,5.0,3.0,4.0,5.0,5.0,2.0,3.0,5.0,3.0,2.0,5.0,5.0,4.0,3.0,4.0,4.0,4.0,4.0,5.0,4.0,6.0,4.0,3.0,4.0,5.0,4.0,6.0,6.0,6.0,3.0,4.0,4.0,4.0,4.0,3.0,4.0,4.0,5.0,5.0,General uncertainties,4.0,5.0,5.0,5.0,5.0,4.0,5.0,5.0,4.0,5.0,2.0,3.0,4.0,2.0,3.0,3.0,4.0,2.0,4.0,4.0,4.0,4.0,3.0,3.0,4.0,2.0,,4.0,5.0,4.0,2.0,5.0,2.0,,2.9,3.0,3.666667,5.0,3.666667,5.0,4.0,4.7
49583,837,2020-04-04 12:13:45,EN,26,Female,"College degree, bachelor, master",Up to 12 years of school,Student,United States,no,NJ,Married/cohabiting,0.0,Yes,Life carries on with minor changes,1.0,0.0,,Program D,No,4.0,4.0,5.0,2.0,3.0,4.0,1.0,2.0,4.0,4.0,3.0,3.0,5.0,3.0,6.0,5.0,5.0,5.0,4.0,7.0,3.0,3.0,5.0,5.0,5.0,6.0,3.0,5.0,4.0,5.0,2.0,3.0,2.0,4.0,4.0,6.0,4.0,4.0,3.0,4.0,5.0,4.0,4.0,6.0,5.0,5.0,2.0,6.0,5.0,5.0,99.0,99.0,3.0,4.0,99.0,5.0,99.0,5.0,3.0,5.0,6.0,5.0,6.0,5.0,6.0,6.0,6.0,5.0,6.0,3.0,6.0,2.0,,5.0,5.0,3.0,4.0,4.0,4.0,4.0,6.0,4.0,5.0,2.0,4.0,5.0,4.0,5.0,4.0,2.0,2.0,4.0,4.0,3.0,2.0,5.0,4.0,1.0,2.0,,4.0,5.0,2.0,2.0,4.0,3.0,,4.1,3.666667,3.0,4.0,4.333333,4.666667,5.333333,4.4
49595,1968,2020-04-04 12:31:07,EN,43,Female,"Some College, short continuing education or equivalent",Up to 12 years of school,Full time employed,United States,no,Ca,Single,1.0,Yes,Life carries on as usual,1.0,0.0,Program A,,Not sure,2.0,2.0,3.0,4.0,3.0,2.0,4.0,4.0,2.0,2.0,4.0,2.0,2.0,1.0,5.0,3.0,3.0,2.0,3.0,3.0,4.0,4.0,4.0,4.0,4.0,4.0,4.0,3.0,6.0,5.0,3.0,2.0,4.0,3.0,2.0,6.0,3.0,3.0,5.0,3.0,4.0,2.0,4.0,4.0,5.0,4.0,2.0,5.0,4.0,4.0,99.0,5.0,4.0,3.0,4.0,5.0,99.0,4.0,4.0,5.0,6.0,4.0,4.0,3.0,3.0,2.0,4.0,6.0,5.0,2.0,4.0,4.0,,4.0,4.0,4.0,5.0,5.0,5.0,5.0,5.0,4.0,4.0,3.0,3.0,4.0,2.0,2.0,3.0,1.0,1.0,3.0,4.0,4.0,4.0,1.0,4.0,6.0,2.0,,5.0,3.0,2.0,2.0,4.0,3.0,,2.2,2.666667,2.0,2.666667,3.0,4.0,4.666667,4.5
49718,886,2020-04-04 11:43:57,EN,29,Male,PhD/Doctorate,College degree,Student,United States,no,NJ,Married/cohabiting,0.0,Yes,Isolated,2.0,0.0,,Program D,No,2.0,2.0,3.0,4.0,3.0,2.0,3.0,4.0,2.0,1.0,3.0,3.0,3.0,6.0,9.0,2.0,6.0,9.0,5.0,8.0,0.0,4.0,6.0,4.0,6.0,6.0,1.0,6.0,5.0,5.0,4.0,4.0,4.0,2.0,2.0,5.0,6.0,6.0,2.0,5.0,5.0,5.0,3.0,5.0,5.0,6.0,1.0,6.0,1.0,2.0,99.0,2.0,4.0,5.0,3.0,3.0,99.0,6.0,3.0,6.0,6.0,6.0,2.0,3.0,4.0,4.0,4.0,5.0,3.0,2.0,4.0,2.0,,6.0,6.0,6.0,6.0,6.0,6.0,6.0,6.0,6.0,6.0,3.0,3.0,5.0,3.0,6.0,4.0,4.0,4.0,6.0,5.0,3.0,4.0,6.0,6.0,4.0,4.0,,5.0,5.0,3.0,2.0,3.0,4.0,,2.2,3.0,2.0,5.666667,5.0,4.666667,6.0,6.0
49720,1258,2020-04-05 11:49:31,EN,66,Female,"College degree, bachelor, master",Up to 12 years of school,Retired,United States,no,IL,Married/cohabiting,1.0,Yes,Life carries on with minor changes,2.0,0.0,,,,3.0,2.0,2.0,4.0,4.0,2.0,4.0,4.0,3.0,2.0,2.0,2.0,3.0,5.0,1.0,,2.0,2.0,2.0,4.0,2.0,4.0,4.0,4.0,5.0,4.0,1.0,1.0,5.0,5.0,2.0,5.0,2.0,4.0,2.0,4.0,4.0,4.0,4.0,5.0,6.0,4.0,3.0,4.0,5.0,4.0,3.0,4.0,4.0,99.0,99.0,99.0,4.0,5.0,4.0,2.0,99.0,5.0,5.0,4.0,4.0,4.0,99.0,2.0,3.0,4.0,4.0,4.0,4.0,2.0,5.0,4.0,,6.0,5.0,6.0,6.0,,,6.0,6.0,4.0,6.0,,6.0,,,,4.0,,,,,,,,,,,,2.0,5.0,5.0,4.0,4.0,3.0,,2.2,2.333333,3.0,3.666667,5.0,4.333333,4.0,5.625
49759,1286,2020-04-04 11:42:14,EN,40,Male,"College degree, bachelor, master",PhD/Doctorate,Self-employed,United States,no,MA,Married/cohabiting,0.0,Yes,Life carries on with minor changes,1.0,0.0,,Program D,No,2.0,3.0,3.0,4.0,3.0,2.0,3.0,4.0,4.0,3.0,3.0,3.0,4.0,3.0,7.0,1.0,2.0,5.0,4.0,5.0,1.0,4.0,5.0,5.0,6.0,6.0,1.0,5.0,5.0,5.0,2.0,2.0,5.0,2.0,3.0,4.0,4.0,2.0,3.0,6.0,5.0,6.0,2.0,4.0,4.0,3.0,5.0,5.0,99.0,1.0,99.0,2.0,5.0,4.0,99.0,2.0,99.0,6.0,5.0,5.0,6.0,6.0,99.0,5.0,2.0,4.0,3.0,6.0,5.0,3.0,4.0,1.0,,5.0,6.0,2.0,5.0,5.0,4.0,5.0,6.0,4.0,5.0,2.0,5.0,3.0,1.0,2.0,3.0,6.0,6.0,6.0,3.0,2.0,2.0,4.0,4.0,1.0,2.0,,2.0,4.0,4.0,2.0,4.0,3.0,"So far things are okay, but I worry the supply chains for food will fail.",2.7,3.333333,2.666667,3.333333,5.666667,4.333333,3.333333,4.7
49849,1465,2020-04-04 11:24:46,EN,54,Female,"Some College, short continuing education or equivalent",Up to 9 years of school,Not employed,United States,yes,WASHINGTON,Married/cohabiting,1.0,Yes,Isolated,1.0,0.0,Program A,,No,4.0,3.0,3.0,4.0,4.0,3.0,4.0,3.0,2.0,2.0,1.0,3.0,2.0,5.0,6.0,1.0,5.0,8.0,2.0,6.0,0.0,6.0,6.0,5.0,5.0,5.0,0.0,6.0,6.0,6.0,2.0,3.0,4.0,5.0,5.0,2.0,4.0,2.0,6.0,3.0,6.0,5.0,2.0,4.0,5.0,5.0,4.0,5.0,5.0,4.0,5.0,2.0,2.0,1.0,2.0,2.0,99.0,6.0,3.0,6.0,6.0,6.0,99.0,2.0,99.0,2.0,2.0,2.0,4.0,4.0,4.0,4.0,,6.0,6.0,4.0,6.0,6.0,3.0,5.0,6.0,5.0,5.0,4.0,5.0,5.0,2.0,4.0,5.0,6.0,4.0,6.0,5.0,5.0,4.0,4.0,6.0,6.0,6.0,,5.0,4.0,4.0,2.0,3.0,4.0,,2.6,2.0,5.0,2.333333,4.666667,4.666667,4.333333,5.2
49858,5430,2020-04-04 12:29:06,EN,44,Female,PhD/Doctorate,Up to 12 years of school,Full time employed,United States,no,Oregon,Single,0.0,Yes,Isolated,0.0,0.0,,,,2.0,4.0,3.0,4.0,4.0,4.0,4.0,3.0,2.0,1.0,2.0,2.0,3.0,8.0,9.0,1.0,5.0,7.0,1.0,9.0,0.0,5.0,5.0,5.0,5.0,5.0,0.0,5.0,6.0,6.0,1.0,2.0,6.0,2.0,2.0,6.0,5.0,3.0,4.0,5.0,6.0,6.0,4.0,5.0,5.0,5.0,2.0,5.0,3.0,4.0,99.0,99.0,4.0,4.0,99.0,99.0,99.0,5.0,4.0,4.0,4.0,5.0,4.0,2.0,3.0,2.0,2.0,99.0,5.0,3.0,5.0,4.0,,5.0,5.0,5.0,5.0,5.0,5.0,5.0,5.0,5.0,5.0,2.0,5.0,5.0,3.0,2.0,4.0,2.0,2.0,6.0,4.0,4.0,4.0,5.0,5.0,1.0,4.0,,2.0,3.0,4.0,4.0,2.0,3.0,,2.5,2.333333,1.666667,3.666667,5.666667,4.333333,5.0,5.0
49953,306,2020-04-05 10:43:08,EN,23,Female,"College degree, bachelor, master",College degree,Full time employed,United States,yes,Colorado,Single,0.0,Yes,Isolated,0.0,0.0,Program A,,No,4.0,3.0,2.0,4.0,3.0,2.0,3.0,3.0,4.0,2.0,4.0,3.0,4.0,3.0,7.0,3.0,1.0,4.0,2.0,7.0,0.0,3.0,4.0,3.0,6.0,6.0,1.0,6.0,5.0,5.0,2.0,2.0,3.0,5.0,5.0,5.0,5.0,2.0,5.0,4.0,5.0,3.0,5.0,3.0,5.0,5.0,3.0,6.0,,,,,,,,,,,,,,,,,,,,,,,,,,,,,,,,,,,,,,,,,,,,,,,,,,,,,,,,,,,,2.8,3.666667,4.0,3.0,4.0,3.333333,5.0,
49969,2031,2020-04-04 11:08:52,EN,73,Female,"Some College, short continuing education or equivalent",Some College or equivalent,Retired,United States,no,Texas,Divorced/widowed,0.0,Yes,Life carries on with minor changes,0.0,0.0,,Program D,No,2.0,1.0,3.0,5.0,4.0,2.0,5.0,4.0,3.0,1.0,2.0,1.0,3.0,9.0,10.0,5.0,9.0,8.0,8.0,2.0,9.0,5.0,5.0,5.0,4.0,3.0,8.0,4.0,5.0,4.0,2.0,4.0,4.0,2.0,1.0,5.0,5.0,5.0,1.0,5.0,5.0,4.0,1.0,5.0,5.0,6.0,2.0,5.0,2.0,4.0,1.0,2.0,4.0,5.0,4.0,4.0,99.0,4.0,4.0,2.0,2.0,5.0,99.0,6.0,99.0,6.0,5.0,4.0,5.0,2.0,5.0,5.0,,6.0,5.0,5.0,5.0,5.0,5.0,6.0,6.0,5.0,6.0,5.0,5.0,5.0,5.0,5.0,4.0,1.0,1.0,5.0,5.0,4.0,5.0,2.0,6.0,6.0,5.0,,4.0,5.0,4.0,3.0,2.0,4.0,,1.8,2.0,1.666667,5.333333,4.666667,5.333333,5.333333,5.4
50106,2398,2020-04-05 10:50:21,SME,31,Female,PhD/Doctorate,Up to 9 years of school,Full time employed,United States,yes,Texaa,Married/cohabiting,0.0,Yes,Life carries on with minor changes,2.0,0.0,,Program C,No,2.0,1.0,2.0,5.0,5.0,2.0,5.0,5.0,1.0,1.0,3.0,1.0,4.0,7.0,7.0,9.0,9.0,9.0,1.0,6.0,8.0,4.0,6.0,4.0,5.0,6.0,10.0,5.0,6.0,5.0,2.0,3.0,2.0,4.0,4.0,6.0,4.0,5.0,3.0,4.0,5.0,6.0,1.0,2.0,6.0,5.0,1.0,6.0,1.0,1.0,1.0,2.0,1.0,5.0,1.0,2.0,1.0,5.0,1.0,5.0,5.0,5.0,1.0,4.0,2.0,4.0,2.0,5.0,2.0,1.0,4.0,5.0,,,,,,,,,,,,,,,,,,,,,,,,,,,,,,,,,,,,1.3,2.666667,3.0,4.333333,5.0,4.666667,5.666667,
50137,923,2020-04-04 10:19:48,EN,34,Female,"College degree, bachelor, master",College degree,Full time employed,United States,no,Massachusetts,Single,0.0,Yes,Isolated,1.0,0.0,,Program C,No,4.0,3.0,4.0,2.0,2.0,3.0,3.0,3.0,2.0,3.0,4.0,2.0,3.0,6.0,9.0,2.0,5.0,3.0,2.0,7.0,0.0,5.0,6.0,5.0,6.0,6.0,0.0,5.0,5.0,5.0,3.0,5.0,5.0,5.0,5.0,4.0,6.0,4.0,3.0,5.0,6.0,4.0,1.0,6.0,5.0,4.0,2.0,5.0,6.0,2.0,99.0,6.0,2.0,4.0,2.0,5.0,99.0,6.0,2.0,5.0,5.0,5.0,2.0,2.0,2.0,4.0,2.0,99.0,2.0,2.0,4.0,2.0,The other people that as rent as lucky as i am losing jobs housing and lives because they dont have the economic and medical protections they need!!,6.0,5.0,5.0,5.0,5.0,4.0,6.0,6.0,5.0,6.0,4.0,4.0,6.0,2.0,4.0,5.0,2.0,2.0,5.0,5.0,5.0,6.0,5.0,5.0,3.0,,Reading. Watching movies and shows with friends over the phone.  Speaking to friends and family,6.0,5.0,5.0,4.0,4.0,3.0,The most upsetting thing that had changed is the understanding that US citizens/states are essentially on their own and our country has abandoned the poor. Im also pretty scared about my job which has always been 100% solid for me.,3.3,3.0,4.333333,4.666667,5.0,5.666667,4.666667,5.3
50219,1979,2020-04-04 10:24:19,EN,33,Female,PhD/Doctorate,Up to 12 years of school,Full time employed,United States,yes,Washington,Married/cohabiting,0.0,Yes,Isolated,0.0,0.0,,Program D,No,3.0,3.0,5.0,3.0,3.0,4.0,3.0,2.0,4.0,4.0,5.0,5.0,5.0,6.0,8.0,5.0,7.0,8.0,8.0,4.0,1.0,5.0,6.0,6.0,6.0,6.0,0.0,5.0,6.0,6.0,2.0,3.0,4.0,3.0,5.0,4.0,3.0,2.0,5.0,3.0,5.0,4.0,2.0,5.0,5.0,4.0,4.0,5.0,2.0,6.0,99.0,2.0,5.0,2.0,2.0,99.0,99.0,4.0,5.0,6.0,6.0,6.0,5.0,2.0,2.0,6.0,6.0,2.0,4.0,2.0,5.0,6.0,,6.0,5.0,5.0,6.0,6.0,5.0,6.0,6.0,5.0,5.0,5.0,4.0,5.0,2.0,6.0,5.0,5.0,5.0,6.0,5.0,5.0,5.0,5.0,4.0,2.0,5.0,,5.0,5.0,5.0,5.0,5.0,4.0,,3.6,5.0,3.666667,2.333333,4.0,5.0,4.0,5.5
50334,721,2020-04-04 09:41:39,EN,52,Female,"College degree, bachelor, master",PhD/Doctorate,Student,United States,no,IL,Single,0.0,Yes,Isolated,2.0,0.0,Program A,,No,4.0,4.0,5.0,3.0,3.0,3.0,3.0,3.0,4.0,4.0,4.0,3.0,4.0,7.0,10.0,1.0,10.0,10.0,7.0,10.0,0.0,5.0,5.0,5.0,4.0,4.0,0.0,5.0,5.0,5.0,2.0,3.0,3.0,5.0,5.0,4.0,5.0,4.0,3.0,5.0,6.0,5.0,2.0,5.0,5.0,4.0,4.0,5.0,5.0,6.0,99.0,5.0,5.0,4.0,6.0,4.0,99.0,6.0,3.0,6.0,6.0,6.0,3.0,5.0,5.0,5.0,6.0,5.0,3.0,3.0,6.0,5.0,,6.0,6.0,5.0,5.0,6.0,5.0,6.0,6.0,6.0,6.0,4.0,6.0,6.0,3.0,5.0,6.0,4.0,5.0,6.0,5.0,5.0,6.0,5.0,6.0,5.0,4.0,,2.0,5.0,6.0,5.0,5.0,3.0,,3.6,3.666667,4.333333,4.333333,5.333333,5.0,4.0,5.7
50353,1733,2020-04-05 09:55:27,EN,69,Female,"Some College, short continuing education or equivalent",Up to 12 years of school,Retired,United States,no,Utah,Divorced/widowed,1.0,Yes,Isolated,1.0,0.0,,Program C,No,,3.0,,4.0,4.0,2.0,3.0,3.0,2.0,,3.0,,1.0,7.0,9.0,4.0,6.0,7.0,8.0,5.0,2.0,4.0,5.0,4.0,5.0,4.0,3.0,,6.0,6.0,4.0,6.0,4.0,6.0,2.0,5.0,6.0,3.0,5.0,4.0,5.0,4.0,2.0,6.0,5.0,5.0,2.0,5.0,99.0,99.0,99.0,99.0,4.0,5.0,5.0,99.0,4.0,99.0,3.0,2.0,5.0,5.0,2.0,99.0,99.0,4.0,1.0,2.0,4.0,99.0,4.0,99.0,,,,,,,,,,,,,,,,,,,,,,,,,,,,,,,,,,,,2.428571,2.0,3.333333,3.666667,4.333333,5.333333,5.0,
50418,2581,2020-04-04 09:58:02,EN,48,Female,"College degree, bachelor, master",College degree,Full time employed,United States,no,Washington state,Single,0.0,Yes,Isolated,0.0,0.0,Program A,,No,3.0,3.0,4.0,3.0,3.0,3.0,3.0,3.0,2.0,3.0,2.0,2.0,3.0,6.0,9.0,3.0,3.0,8.0,5.0,7.0,1.0,4.0,5.0,5.0,6.0,6.0,0.0,6.0,5.0,6.0,2.0,4.0,6.0,3.0,3.0,5.0,4.0,3.0,5.0,5.0,5.0,3.0,4.0,5.0,5.0,5.0,4.0,6.0,2.0,2.0,99.0,2.0,5.0,4.0,5.0,99.0,99.0,5.0,4.0,4.0,4.0,5.0,4.0,3.0,2.0,2.0,2.0,2.0,3.0,3.0,3.0,4.0,,6.0,6.0,6.0,6.0,6.0,6.0,6.0,6.0,6.0,6.0,4.0,5.0,5.0,5.0,5.0,5.0,2.0,2.0,5.0,4.0,5.0,3.0,4.0,2.0,4.0,3.0,,2.0,5.0,5.0,5.0,5.0,2.0,,3.0,2.333333,2.666667,3.0,4.333333,4.333333,4.666667,6.0
50426,2213,2020-04-04 09:49:56,EN,68,Female,"Some College, short continuing education or equivalent",Up to 12 years of school,Retired,United States,no,NM,Married/cohabiting,0.0,Yes,Life carries on with minor changes,1.0,0.0,Program A,,No,4.0,2.0,3.0,5.0,2.0,2.0,4.0,4.0,3.0,2.0,3.0,5.0,4.0,5.0,7.0,6.0,4.0,5.0,7.0,0.0,6.0,6.0,6.0,4.0,5.0,5.0,8.0,5.0,5.0,6.0,3.0,3.0,2.0,4.0,3.0,4.0,4.0,5.0,2.0,4.0,6.0,3.0,2.0,5.0,5.0,4.0,1.0,6.0,3.0,99.0,99.0,99.0,2.0,4.0,5.0,5.0,99.0,6.0,4.0,5.0,4.0,6.0,99.0,4.0,4.0,5.0,5.0,2.0,2.0,2.0,5.0,99.0,Worried about family in other areas of the country,5.0,5.0,3.0,4.0,4.0,4.0,5.0,5.0,5.0,6.0,4.0,,3.0,,3.0,5.0,4.0,2.0,4.0,5.0,4.0,4.0,4.0,4.0,5.0,5.0,,4.0,4.0,3.0,3.0,4.0,4.0,"Living in a rural area we have been faced with many outsiders combing here, camping, etc. Ive been worried about them bringing the virus to our area, and 2 days ago the local grocery store clerk tested positive.  Although I dont like our freedom being compromised, I do believe people should trust the guidelines & stay home.",2.5,4.0,3.333333,4.666667,4.333333,5.0,5.333333,4.6
50478,486,2020-04-04 09:12:08,EN,46,Female,"College degree, bachelor, master",Up to 12 years of school,Part time employed,United States,no,,Single,,Yes,Life carries on with minor changes,,,Program A,,No,2.0,1.0,3.0,5.0,4.0,1.0,5.0,3.0,2.0,1.0,1.0,1.0,1.0,8.0,9.0,3.0,1.0,5.0,5.0,5.0,1.0,5.0,5.0,5.0,5.0,5.0,1.0,5.0,4.0,3.0,2.0,2.0,2.0,4.0,6.0,6.0,4.0,1.0,5.0,4.0,6.0,6.0,1.0,6.0,6.0,5.0,6.0,5.0,3.0,6.0,2.0,4.0,1.0,1.0,1.0,1.0,1.0,6.0,2.0,6.0,6.0,3.0,1.0,1.0,2.0,2.0,1.0,3.0,5.0,1.0,4.0,1.0,,6.0,6.0,6.0,6.0,6.0,6.0,6.0,6.0,6.0,6.0,1.0,6.0,4.0,3.0,5.0,6.0,6.0,6.0,2.0,6.0,2.0,2.0,4.0,4.0,6.0,3.0,,1.0,2.0,4.0,3.0,5.0,1.0,,1.7,1.0,3.666667,2.333333,5.333333,6.0,3.666667,6.0
50496,235,2020-04-05 09:04:25,EN,39,Female,"Some College, short continuing education or equivalent",College degree,Full time employed,United States,no,Nevada,Married/cohabiting,0.0,Yes,Isolated,1.0,0.0,Program A,,No,1.0,3.0,3.0,4.0,3.0,3.0,4.0,3.0,2.0,2.0,2.0,2.0,3.0,,,,,,,,,,,,,,,,,,,,,,,,,,,,,,,,,,,,,,,,,,,,,,,,,,,,,,,,,,,,,,,,,,,,,,,,,,,,,,,,,,,,,,,,,,,,,,,2.4,2.333333,,,,,,
50510,1307,2020-04-04 09:19:53,EN,59,Female,"College degree, bachelor, master",Up to 12 years of school,Full time employed,United States,no,California,Married/cohabiting,0.0,Yes,Life carries on with minor changes,1.0,0.0,,Program C,No,2.0,1.0,4.0,5.0,4.0,1.0,5.0,5.0,1.0,1.0,1.0,1.0,3.0,6.0,9.0,8.0,10.0,10.0,9.0,10.0,10.0,5.0,5.0,5.0,5.0,5.0,5.0,6.0,6.0,6.0,1.0,4.0,2.0,2.0,3.0,6.0,6.0,6.0,1.0,5.0,6.0,2.0,1.0,6.0,,4.0,3.0,6.0,1.0,1.0,99.0,1.0,2.0,2.0,1.0,1.0,99.0,2.0,1.0,3.0,2.0,2.0,1.0,2.0,1.0,2.0,1.0,2.0,1.0,1.0,2.0,1.0,,6.0,6.0,6.0,6.0,6.0,5.0,6.0,6.0,5.0,6.0,5.0,5.0,6.0,2.0,6.0,4.0,1.0,1.0,5.0,6.0,5.0,5.0,6.0,6.0,6.0,5.0,,2.0,6.0,2.0,5.0,2.0,2.0,I have had to adjust my entire work life and big projects to support the shelter in place orders.  Be creative visiting with my grandchildren.,1.5,1.666667,2.0,6.0,4.333333,6.0,4.666667,5.8
50592,965,2020-04-04 08:58:37,EN,44,Female,"College degree, bachelor, master",Up to 12 years of school,Full time employed,United States,no,Georgia,Married/cohabiting,2.0,Yes,Life carries on with minor changes,3.0,1.0,,Program D,Yes,3.0,3.0,3.0,4.0,3.0,4.0,4.0,4.0,3.0,3.0,1.0,5.0,1.0,6.0,9.0,2.0,6.0,8.0,9.0,9.0,6.0,4.0,5.0,5.0,5.0,5.0,3.0,5.0,5.0,5.0,2.0,4.0,4.0,5.0,5.0,5.0,4.0,2.0,4.0,4.0,6.0,4.0,4.0,5.0,5.0,5.0,2.0,5.0,2.0,2.0,6.0,5.0,5.0,3.0,1.0,4.0,5.0,5.0,5.0,5.0,5.0,5.0,2.0,3.0,5.0,2.0,5.0,99.0,3.0,5.0,4.0,5.0,,5.0,5.0,4.0,5.0,5.0,5.0,3.0,5.0,5.0,5.0,4.0,4.0,4.0,2.0,2.0,4.0,2.0,2.0,5.0,5.0,5.0,5.0,5.0,5.0,1.0,4.0,,5.0,5.0,5.0,5.0,5.0,4.0,,2.8,2.333333,4.0,3.0,4.666667,4.333333,5.0,4.7
50659,997,2020-04-04 08:46:34,EN,56,Other/would rather not say,"Some College, short continuing education or equivalent",Up to 12 years of school,Full time employed,United States,no,Indiana,Divorced/widowed,0.0,Yes,Isolated,0.0,0.0,Program A,,No,4.0,3.0,5.0,3.0,1.0,3.0,3.0,2.0,5.0,3.0,5.0,5.0,5.0,5.0,10.0,0.0,3.0,7.0,3.0,9.0,0.0,6.0,6.0,6.0,6.0,5.0,0.0,5.0,6.0,6.0,4.0,2.0,4.0,5.0,6.0,3.0,5.0,2.0,5.0,6.0,6.0,5.0,4.0,5.0,5.0,4.0,2.0,5.0,1.0,2.0,99.0,1.0,4.0,5.0,1.0,99.0,99.0,6.0,5.0,6.0,6.0,6.0,2.0,2.0,2.0,5.0,2.0,99.0,2.0,2.0,5.0,2.0,,5.0,4.0,6.0,6.0,6.0,6.0,6.0,6.0,6.0,5.0,1.0,1.0,6.0,1.0,5.0,5.0,1.0,6.0,5.0,4.0,2.0,2.0,4.0,6.0,1.0,1.0,,1.0,3.0,2.0,2.0,4.0,4.0,,3.8,5.0,5.0,3.0,5.666667,4.333333,4.666667,5.6
50691,407,2020-04-04 08:30:37,EN,43,Female,"College degree, bachelor, master",College degree,Self-employed,United States,no,Maryland,Married/cohabiting,0.0,Yes,Isolated,1.0,,,Program C,Yes,4.0,4.0,5.0,3.0,2.0,3.0,3.0,3.0,4.0,4.0,2.0,3.0,3.0,6.0,8.0,2.0,0.0,5.0,2.0,7.0,1.0,4.0,4.0,5.0,5.0,5.0,0.0,5.0,5.0,6.0,2.0,2.0,2.0,3.0,2.0,5.0,5.0,3.0,3.0,6.0,6.0,6.0,4.0,5.0,5.0,2.0,6.0,5.0,1.0,1.0,99.0,1.0,4.0,5.0,1.0,4.0,99.0,4.0,5.0,2.0,5.0,6.0,1.0,1.0,5.0,2.0,1.0,2.0,1.0,1.0,4.0,3.0,,6.0,5.0,5.0,4.0,5.0,4.0,5.0,5.0,5.0,6.0,1.0,2.0,2.0,2.0,1.0,6.0,6.0,6.0,4.0,5.0,2.0,1.0,1.0,5.0,1.0,1.0,,1.0,4.0,4.0,1.0,4.0,4.0,,3.7,2.666667,2.333333,4.0,6.0,4.333333,2.666667,5.0
50709,1533,2020-04-05 08:46:10,EN,33,Female,Up to 12 years of school,College degree,Full time employed,United States,no,Texas,Single,1.0,Yes,Isolated,1.0,0.0,Program A,,No,4.0,5.0,5.0,2.0,2.0,3.0,1.0,2.0,4.0,4.0,4.0,5.0,5.0,2.0,5.0,4.0,4.0,4.0,0.0,4.0,4.0,3.0,5.0,4.0,5.0,4.0,5.0,5.0,5.0,4.0,5.0,5.0,4.0,5.0,5.0,4.0,4.0,2.0,4.0,1.0,5.0,1.0,4.0,5.0,4.0,4.0,4.0,5.0,6.0,99.0,3.0,6.0,5.0,5.0,1.0,6.0,99.0,6.0,4.0,5.0,4.0,4.0,99.0,5.0,4.0,6.0,5.0,6.0,4.0,2.0,6.0,5.0,,5.0,5.0,4.0,6.0,5.0,5.0,5.0,5.0,4.0,5.0,3.0,4.0,3.0,4.0,3.0,1.0,1.0,1.0,4.0,2.0,1.0,2.0,1.0,2.0,1.0,3.0,,6.0,5.0,4.0,4.0,5.0,3.0,I am depressed.,4.2,4.666667,4.333333,3.0,2.333333,4.0,4.0,4.9
50714,836,2020-04-04 08:33:02,EN,59,Female,"Some College, short continuing education or equivalent",Up to 12 years of school,Self-employed,United States,no,north carolina,Divorced/widowed,0.0,Yes,Isolated,0.0,0.0,Program A,,Not sure,3.0,3.0,4.0,4.0,2.0,2.0,3.0,3.0,3.0,3.0,4.0,4.0,4.0,4.0,7.0,1.0,1.0,6.0,1.0,7.0,0.0,4.0,6.0,6.0,6.0,6.0,0.0,6.0,5.0,5.0,2.0,2.0,2.0,6.0,5.0,4.0,2.0,2.0,5.0,4.0,6.0,5.0,2.0,4.0,6.0,2.0,4.0,4.0,6.0,4.0,4.0,5.0,4.0,4.0,1.0,99.0,99.0,6.0,5.0,6.0,6.0,5.0,99.0,4.0,2.0,6.0,5.0,4.0,4.0,2.0,6.0,1.0,,5.0,4.0,5.0,5.0,5.0,4.0,5.0,5.0,5.0,5.0,1.0,6.0,6.0,5.0,5.0,5.0,2.0,2.0,5.0,4.0,4.0,2.0,2.0,5.0,1.0,1.0,,2.0,6.0,6.0,5.0,6.0,4.0,"I have no job security and could lose my health insurance at any moment. Also I am nearing retirement age and can not afford to stop working, probably ever.",3.0,4.0,4.666667,2.0,5.0,5.0,3.0,4.8
50723,4925,2020-04-05 09:41:00,EN,72,Female,"College degree, bachelor, master",Some College or equivalent,Retired,United States,no,Calif.,Divorced/widowed,2.0,Yes,Life carries on with minor changes,3.0,0.0,,Program D,No,1.0,1.0,1.0,5.0,4.0,1.0,5.0,5.0,1.0,1.0,3.0,3.0,1.0,8.0,8.0,3.0,3.0,5.0,3.0,8.0,0.0,4.0,4.0,4.0,5.0,5.0,1.0,5.0,3.0,4.0,1.0,5.0,2.0,2.0,1.0,6.0,5.0,6.0,2.0,4.0,5.0,4.0,1.0,6.0,6.0,4.0,6.0,6.0,1.0,1.0,1.0,1.0,1.0,6.0,1.0,3.0,1.0,2.0,4.0,3.0,3.0,4.0,1.0,1.0,1.0,4.0,1.0,1.0,1.0,1.0,2.0,1.0,,5.0,5.0,5.0,5.0,5.0,5.0,5.0,5.0,5.0,5.0,1.0,4.0,5.0,1.0,1.0,4.0,4.0,1.0,1.0,1.0,1.0,1.0,1.0,1.0,5.0,1.0,,1.0,5.0,4.0,1.0,1.0,4.0,,1.1,2.333333,1.333333,5.333333,4.333333,6.0,3.666667,5.0
50745,1729,2020-04-04 08:43:38,EN,55,Male,"College degree, bachelor, master",College degree,Full time employed,United States,no,Colorado,Married/cohabiting,1.0,Yes,Life carries on with minor changes,1.0,0.0,Program A,,No,3.0,3.0,4.0,4.0,4.0,1.0,5.0,4.0,1.0,1.0,3.0,3.0,1.0,8.0,10.0,6.0,6.0,8.0,6.0,5.0,7.0,5.0,6.0,5.0,6.0,5.0,4.0,2.0,5.0,4.0,1.0,2.0,5.0,5.0,5.0,2.0,2.0,5.0,2.0,3.0,5.0,5.0,3.0,5.0,5.0,5.0,5.0,5.0,5.0,2.0,99.0,6.0,5.0,5.0,5.0,2.0,99.0,6.0,5.0,5.0,5.0,4.0,99.0,2.0,1.0,4.0,4.0,5.0,5.0,5.0,5.0,2.0,,6.0,5.0,5.0,6.0,5.0,5.0,6.0,6.0,5.0,6.0,5.0,6.0,6.0,5.0,2.0,5.0,1.0,2.0,5.0,5.0,5.0,5.0,5.0,5.0,5.0,5.0,,2.0,6.0,2.0,2.0,4.0,2.0,Concerned about the economic impact that the shut down will have,2.0,2.333333,5.0,4.0,4.333333,4.666667,4.0,5.5
50813,723,2020-04-05 08:14:26,EN,32,Female,"College degree, bachelor, master",College degree,Full time employed,United States,no,WA,Single,0.0,No,Isolated,0.0,0.0,,Program D,No,1.0,3.0,3.0,3.0,3.0,1.0,3.0,2.0,1.0,1.0,5.0,3.0,4.0,5.0,9.0,3.0,6.0,7.0,1.0,4.0,2.0,4.0,5.0,4.0,4.0,4.0,2.0,4.0,3.0,5.0,5.0,1.0,4.0,3.0,5.0,4.0,5.0,6.0,1.0,4.0,5.0,2.0,2.0,3.0,5.0,4.0,1.0,5.0,2.0,4.0,99.0,5.0,3.0,6.0,4.0,99.0,99.0,4.0,3.0,5.0,4.0,5.0,4.0,6.0,3.0,6.0,4.0,99.0,4.0,3.0,6.0,6.0,,5.0,5.0,5.0,4.0,4.0,4.0,4.0,3.0,5.0,5.0,2.0,5.0,5.0,3.0,5.0,3.0,1.0,1.0,2.0,3.0,4.0,3.0,5.0,3.0,1.0,3.0,,3.0,5.0,4.0,5.0,5.0,3.0,Loneliness,2.3,4.0,3.666667,5.666667,3.666667,4.333333,5.0,4.4
50824,1282,2020-04-04 08:20:44,EN,66,Female,"Some College, short continuing education or equivalent",Up to 12 years of school,Retired,United States,no,,Married/cohabiting,0.0,Yes,Isolated,1.0,0.0,,Program D,No,2.0,2.0,2.0,4.0,3.0,2.0,4.0,4.0,2.0,2.0,2.0,2.0,3.0,5.0,9.0,1.0,7.0,5.0,5.0,0.0,6.0,6.0,6.0,6.0,6.0,5.0,5.0,6.0,6.0,6.0,2.0,4.0,4.0,4.0,3.0,5.0,4.0,1.0,6.0,4.0,5.0,2.0,1.0,5.0,6.0,5.0,1.0,5.0,99.0,99.0,99.0,99.0,4.0,4.0,2.0,1.0,99.0,6.0,2.0,2.0,6.0,5.0,99.0,2.0,2.0,3.0,2.0,2.0,2.0,1.0,5.0,99.0,,5.0,5.0,5.0,5.0,5.0,5.0,5.0,5.0,5.0,5.0,5.0,5.0,6.0,5.0,6.0,4.0,1.0,1.0,4.0,5.0,5.0,5.0,5.0,6.0,6.0,5.0,,3.0,4.0,6.0,4.0,4.0,4.0,Have used Zoom to stay connected with friends and family during this time and it helps me to not feel isolated to be able to talk to others,2.1,2.333333,3.0,2.0,3.666667,5.666667,5.333333,5.0
50839,1524,2020-04-04 08:21:38,EN,62,Female,"College degree, bachelor, master",College degree,Part time employed,United States,no,Minnesota,Married/cohabiting,0.0,Yes,Isolated,3.0,0.0,,Program D,No,3.0,4.0,4.0,3.0,1.0,4.0,3.0,3.0,4.0,3.0,1.0,1.0,1.0,7.0,8.0,0.0,2.0,8.0,3.0,8.0,0.0,5.0,6.0,5.0,5.0,6.0,0.0,6.0,5.0,3.0,4.0,4.0,2.0,2.0,1.0,5.0,1.0,1.0,6.0,5.0,5.0,5.0,3.0,5.0,5.0,5.0,3.0,5.0,1.0,6.0,4.0,99.0,2.0,5.0,1.0,2.0,99.0,5.0,1.0,4.0,3.0,4.0,6.0,3.0,3.0,1.0,2.0,2.0,1.0,1.0,4.0,1.0,,6.0,6.0,6.0,6.0,6.0,6.0,6.0,6.0,6.0,6.0,1.0,5.0,6.0,4.0,2.0,3.0,1.0,1.0,4.0,5.0,2.0,2.0,2.0,5.0,2.0,4.0,,1.0,4.0,2.0,3.0,3.0,2.0,"My mother is in hospice and is dying. We moved my parents to my sister's house from the assisted living facility where they were living and we were unable to visit them. Because my immediate household had a member ill with cover-19 symptoms, we are quarantined and have to visit my parents while standing outside and talking on the phone through the window. I wish that I could go inside and hold my mother's hand!",3.6,1.0,1.666667,1.0,5.0,4.666667,4.666667,6.0
50883,932,2020-04-05 08:04:24,EN,76,Female,"Some College, short continuing education or equivalent",Up to 12 years of school,Retired,United States,no,Michigan,Married/cohabiting,1.0,Yes,Isolated,2.0,0.0,Program A,,No,1.0,2.0,3.0,5.0,3.0,2.0,4.0,4.0,2.0,2.0,1.0,3.0,2.0,5.0,10.0,5.0,8.0,9.0,4.0,9.0,8.0,6.0,6.0,6.0,6.0,6.0,6.0,5.0,6.0,6.0,3.0,5.0,4.0,5.0,4.0,5.0,4.0,4.0,5.0,4.0,6.0,2.0,1.0,4.0,5.0,5.0,2.0,5.0,99.0,99.0,1.0,99.0,5.0,5.0,99.0,1.0,99.0,6.0,1.0,6.0,6.0,6.0,99.0,99.0,1.0,1.0,4.0,1.0,5.0,1.0,6.0,99.0,,6.0,2.0,5.0,6.0,4.0,5.0,4.0,6.0,2.0,6.0,4.0,3.0,6.0,2.0,4.0,5.0,1.0,1.0,6.0,4.0,6.0,6.0,1.0,4.0,6.0,6.0,,2.0,5.0,1.0,5.0,5.0,6.0,,2.0,2.0,3.666667,3.333333,4.0,5.0,5.0,4.6
50939,618,2020-04-04 07:50:48,EN,41,Other/would rather not say,"College degree, bachelor, master",College degree,Full time employed,United States,no,Maryland,Married/cohabiting,0.0,Yes,Isolated,1.0,0.0,Program A,,No,4.0,3.0,5.0,3.0,2.0,4.0,2.0,3.0,3.0,3.0,3.0,3.0,3.0,4.0,7.0,2.0,3.0,7.0,2.0,4.0,0.0,6.0,6.0,6.0,6.0,6.0,1.0,5.0,5.0,6.0,2.0,2.0,4.0,5.0,5.0,5.0,5.0,2.0,3.0,4.0,6.0,5.0,4.0,3.0,4.0,5.0,4.0,5.0,2.0,5.0,99.0,5.0,5.0,3.0,99.0,2.0,99.0,3.0,5.0,6.0,6.0,4.0,4.0,3.0,5.0,4.0,4.0,5.0,4.0,3.0,3.0,4.0,,6.0,5.0,5.0,6.0,6.0,6.0,6.0,6.0,6.0,6.0,2.0,2.0,6.0,2.0,4.0,5.0,1.0,2.0,5.0,3.0,4.0,3.0,2.0,4.0,2.0,3.0,,4.0,4.0,4.0,4.0,5.0,,,3.6,3.0,4.0,3.666667,5.0,3.333333,4.333333,5.8
51053,188,2020-04-05 07:20:25,EN,42,Female,"College degree, bachelor, master",Up to 12 years of school,Full time employed,United States,no,Washington,Married/cohabiting,0.0,Yes,Life carries on with minor changes,,,Program A,,No,2.0,3.0,4.0,4.0,3.0,3.0,3.0,3.0,2.0,2.0,3.0,3.0,4.0,,,,,,,,,,,,,,,,,,,,,,,,,,,,,,,,,,,,,,,,,,,,,,,,,,,,,,,,,,,,,,,,,,,,,,,,,,,,,,,,,,,,,,,,,,,,,,,2.7,3.333333,,,,,,
51136,1381,2020-04-04 07:23:52,EN,37,Female,"College degree, bachelor, master",College degree,Not employed,United States,yes,California,Married/cohabiting,2.0,Yes,Life carries on with minor changes,1.0,2.0,Program A,,Yes,2.0,3.0,3.0,4.0,4.0,3.0,3.0,4.0,2.0,1.0,1.0,2.0,3.0,4.0,9.0,7.0,8.0,7.0,7.0,0.0,6.0,5.0,6.0,5.0,6.0,5.0,4.0,4.0,6.0,6.0,2.0,4.0,5.0,3.0,4.0,2.0,4.0,4.0,2.0,3.0,5.0,3.0,4.0,5.0,4.0,3.0,3.0,3.0,4.0,5.0,3.0,6.0,5.0,4.0,2.0,1.0,6.0,6.0,4.0,6.0,6.0,6.0,2.0,2.0,3.0,4.0,3.0,5.0,5.0,4.0,5.0,4.0,,4.0,4.0,5.0,6.0,5.0,5.0,6.0,6.0,3.0,6.0,4.0,5.0,5.0,2.0,5.0,3.0,4.0,5.0,5.0,6.0,5.0,3.0,5.0,5.0,6.0,4.0,,5.0,5.0,5.0,3.0,5.0,3.0,,2.3,2.0,4.0,4.333333,3.666667,4.0,3.333333,5.0
51156,692,2020-04-04 07:08:43,EN,43,Female,"College degree, bachelor, master",College degree,Full time employed,United States,no,Ohio,Married/cohabiting,3.0,Yes,Isolated,1.0,3.0,Program A,,No,2.0,2.0,3.0,4.0,4.0,3.0,4.0,3.0,3.0,2.0,3.0,3.0,3.0,6.0,8.0,8.0,8.0,8.0,9.0,9.0,8.0,5.0,5.0,5.0,5.0,5.0,7.0,5.0,5.0,5.0,2.0,3.0,2.0,3.0,2.0,5.0,5.0,5.0,2.0,3.0,5.0,3.0,2.0,5.0,5.0,6.0,2.0,5.0,4.0,5.0,5.0,4.0,4.0,5.0,4.0,2.0,4.0,6.0,5.0,5.0,4.0,5.0,4.0,4.0,4.0,4.0,3.0,3.0,3.0,2.0,5.0,5.0,,5.0,5.0,5.0,5.0,5.0,5.0,5.0,5.0,5.0,5.0,4.0,5.0,5.0,5.0,5.0,3.0,4.0,4.0,5.0,4.0,3.0,4.0,4.0,4.0,4.0,5.0,,5.0,4.0,4.0,4.0,4.0,4.0,,2.4,3.0,2.333333,5.0,3.666667,5.0,5.333333,5.0
51203,1287,2020-04-04 07:11:00,EN,34,Female,PhD/Doctorate,Some College or equivalent,Full time employed,United States,yes,Ohio,Divorced/widowed,0.0,No,Life carries on with minor changes,0.0,0.0,,Program C,No,3.0,1.0,2.0,4.0,3.0,2.0,4.0,4.0,1.0,2.0,2.0,1.0,3.0,0.0,1.0,1.0,5.0,4.0,3.0,0.0,8.0,2.0,4.0,4.0,5.0,4.0,4.0,6.0,5.0,6.0,2.0,3.0,6.0,2.0,5.0,5.0,4.0,4.0,4.0,5.0,4.0,3.0,4.0,6.0,6.0,3.0,4.0,6.0,3.0,4.0,99.0,4.0,6.0,4.0,99.0,5.0,99.0,5.0,5.0,3.0,5.0,5.0,5.0,3.0,6.0,2.0,6.0,6.0,5.0,5.0,5.0,4.0,,5.0,5.0,5.0,6.0,6.0,6.0,6.0,6.0,6.0,6.0,5.0,5.0,5.0,3.0,3.0,5.0,1.0,4.0,2.0,4.0,4.0,5.0,5.0,6.0,1.0,6.0,,5.0,2.0,5.0,5.0,2.0,2.0,,2.0,2.0,3.0,3.666667,4.0,5.0,4.0,5.7
51213,1534,2020-04-04 07:13:06,EN,31,Female,"College degree, bachelor, master",College degree,Not employed,United States,yes,Pennsylvania,Married/cohabiting,0.0,Yes,Isolated,1.0,0.0,,Program D,Not sure,3.0,2.0,3.0,4.0,2.0,2.0,3.0,3.0,3.0,1.0,3.0,2.0,4.0,6.0,9.0,3.0,5.0,7.0,8.0,8.0,4.0,4.0,5.0,4.0,5.0,6.0,2.0,4.0,4.0,4.0,2.0,4.0,2.0,3.0,4.0,3.0,4.0,3.0,4.0,4.0,5.0,4.0,3.0,5.0,5.0,3.0,4.0,5.0,4.0,99.0,99.0,5.0,4.0,4.0,99.0,3.0,99.0,6.0,5.0,5.0,5.0,5.0,99.0,4.0,4.0,3.0,5.0,3.0,4.0,3.0,5.0,5.0,,5.0,5.0,5.0,5.0,5.0,5.0,5.0,6.0,4.0,5.0,3.0,,6.0,,,4.0,5.0,4.0,5.0,3.0,4.0,3.0,,6.0,,3.0,,3.0,,5.0,4.0,6.0,3.0,The high unemployment rise makes me wonder if crimes related to poverty will rise. I feel afraid of it becoming dangerous to be out in the evening.,2.6,3.0,3.666667,3.333333,4.333333,4.666667,3.666667,5.0
51325,364,2020-04-05 06:36:52,EN,37,Female,PhD/Doctorate,College degree,Full time employed,United States,yes,New York,Married/cohabiting,0.0,Yes,Isolated,2.0,0.0,Program B,,No,2.0,4.0,4.0,5.0,4.0,4.0,4.0,5.0,3.0,3.0,3.0,5.0,5.0,9.0,10.0,6.0,8.0,9.0,4.0,10.0,2.0,1.0,1.0,1.0,1.0,1.0,3.0,,,,,,,,,,,,,,,,,,,,,,,,,,,,,,,,,,,,,,,,,,,,,,,,,,,,,,,,,,,,,,,,,,,,,,,,,,,,,,,,,2.6,4.333333,,,,,,
51356,950,2020-04-04 06:39:50,EN,60,Female,"College degree, bachelor, master",College degree,Full time employed,United States,no,New Jersey,Divorced/widowed,0.0,Yes,Isolated,0.0,0.0,Program B,,Not sure,2.0,1.0,3.0,4.0,3.0,3.0,4.0,4.0,4.0,1.0,3.0,2.0,3.0,6.0,9.0,1.0,3.0,5.0,2.0,5.0,1.0,5.0,6.0,4.0,5.0,5.0,1.0,6.0,5.0,5.0,2.0,2.0,4.0,4.0,2.0,3.0,6.0,5.0,2.0,6.0,6.0,5.0,2.0,5.0,6.0,5.0,4.0,6.0,2.0,4.0,99.0,3.0,3.0,4.0,99.0,99.0,1.0,3.0,4.0,5.0,5.0,6.0,2.0,3.0,2.0,2.0,4.0,2.0,3.0,3.0,4.0,4.0,,6.0,5.0,5.0,5.0,6.0,5.0,6.0,6.0,5.0,5.0,3.0,4.0,5.0,4.0,4.0,6.0,2.0,2.0,5.0,4.0,4.0,2.0,3.0,4.0,1.0,4.0,,2.0,5.0,6.0,5.0,4.0,4.0,,2.3,2.666667,3.333333,5.333333,5.666667,5.333333,4.666667,5.4
51374,195,2020-04-05 06:24:09,EN,30,Male,"College degree, bachelor, master",Up to 12 years of school,Full time employed,United States,no,Wisconsin,Married/cohabiting,3.0,No,Life carries on with minor changes,1.0,2.0,,Program D,,,,,,,,,,,,,,,,,,,,,,,,,,,,,,,,,,,,,,,,,,,,,,,,,,,,,,,,,,,,,,,,,,,,,,,,,,,,,,,,,,,,,,,,,,,,,,,,,,,,,,,,,,,,,,,,,,,,
51444,1788,2020-04-04 06:37:34,EN,69,Male,"College degree, bachelor, master",Up to 12 years of school,Retired,United States,no,Indiana,Married/cohabiting,0.0,Yes,Isolated,1.0,0.0,,Program D,No,3.0,3.0,3.0,4.0,3.0,2.0,4.0,4.0,3.0,3.0,2.0,4.0,2.0,5.0,9.0,1.0,2.0,8.0,8.0,9.0,0.0,5.0,6.0,5.0,6.0,6.0,0.0,3.0,6.0,6.0,1.0,1.0,5.0,4.0,3.0,4.0,3.0,2.0,4.0,3.0,4.0,3.0,4.0,4.0,4.0,3.0,3.0,4.0,1.0,99.0,99.0,99.0,5.0,4.0,1.0,2.0,99.0,3.0,5.0,6.0,6.0,6.0,99.0,2.0,1.0,3.0,99.0,1.0,2.0,1.0,4.0,4.0,,3.0,4.0,2.0,2.0,6.0,4.0,6.0,6.0,3.0,3.0,2.0,1.0,4.0,1.0,4.0,4.0,1.0,1.0,2.0,3.0,3.0,4.0,6.0,4.0,1.0,2.0,Reading and hiking on  our property,1.0,6.0,6.0,4.0,5.0,2.0,,2.6,2.666667,3.333333,2.666667,3.333333,3.666667,3.666667,3.9
51463,453,2020-04-04 06:12:24,EN,39,Other/would rather not say,"College degree, bachelor, master",College degree,Full time employed,United States,no,New York,Single,0.0,Yes,Life carries on with minor changes,3.0,1.0,Program A,,No,5.0,5.0,5.0,5.0,4.0,5.0,1.0,4.0,5.0,5.0,5.0,5.0,5.0,,1.0,,,,,1.0,,4.0,6.0,4.0,6.0,6.0,0.0,6.0,6.0,6.0,1.0,1.0,6.0,6.0,6.0,6.0,3.0,1.0,5.0,6.0,6.0,6.0,1.0,4.0,6.0,6.0,1.0,6.0,1.0,1.0,1.0,1.0,1.0,1.0,1.0,6.0,6.0,1.0,6.0,6.0,6.0,6.0,1.0,1.0,1.0,6.0,1.0,2.0,1.0,1.0,4.0,1.0,,5.0,6.0,6.0,5.0,6.0,5.0,6.0,1.0,5.0,5.0,1.0,3.0,1.0,1.0,1.0,5.0,6.0,6.0,5.0,6.0,4.0,1.0,6.0,6.0,1.0,1.0,,1.0,6.0,6.0,1.0,1.0,4.0,,4.0,5.0,4.333333,2.0,6.0,5.333333,6.0,5.0
51490,541,2020-04-05 06:09:49,EN,26,Male,Up to 12 years of school,College degree,Full time employed,United States,no,Nevada,Married/cohabiting,0.0,Yes,Isolated,1.0,0.0,Program B,,No,3.0,5.0,5.0,2.0,2.0,4.0,3.0,2.0,4.0,4.0,1.0,5.0,3.0,4.0,8.0,0.0,,0.0,4.0,7.0,0.0,4.0,6.0,6.0,5.0,6.0,0.0,5.0,6.0,6.0,2.0,3.0,2.0,6.0,5.0,4.0,4.0,1.0,5.0,5.0,6.0,5.0,4.0,4.0,4.0,4.0,5.0,4.0,,,,,,,,,,,,,,,,,,,,,,,,,,,,,,,,,,,,,,,,,,,,,,,,,,,,,,,,,,,,4.0,3.0,4.666667,2.333333,5.333333,3.666667,3.333333,
51503,857,2020-04-04 06:11:57,EN,56,Female,"Some College, short continuing education or equivalent",Up to 12 years of school,Full time employed,United States,no,Massachusettts,Married/cohabiting,0.0,Yes,Isolated,1.0,0.0,,Program D,Not sure,2.0,3.0,3.0,3.0,3.0,2.0,4.0,3.0,4.0,2.0,1.0,2.0,3.0,5.0,7.0,0.0,1.0,1.0,4.0,7.0,0.0,6.0,6.0,6.0,6.0,6.0,0.0,3.0,5.0,5.0,2.0,2.0,5.0,4.0,2.0,4.0,3.0,2.0,5.0,4.0,6.0,4.0,2.0,4.0,5.0,5.0,5.0,5.0,99.0,99.0,99.0,99.0,4.0,2.0,2.0,2.0,99.0,5.0,5.0,5.0,4.0,4.0,5.0,2.0,2.0,2.0,2.0,3.0,3.0,2.0,2.0,3.0,,5.0,5.0,5.0,5.0,5.0,5.0,5.0,5.0,5.0,5.0,4.0,4.0,5.0,2.0,4.0,3.0,5.0,4.0,5.0,4.0,5.0,4.0,4.0,5.0,1.0,2.0,,3.0,3.0,3.0,3.0,3.0,3.0,,2.7,2.0,3.0,2.333333,4.666667,4.666667,4.0,5.0
51589,609,2020-04-04 05:51:46,EN,61,Other/would rather not say,"College degree, bachelor, master",PhD/Doctorate,Full time employed,United States,no,Texas,Single,0.0,Yes,Life carries on with minor changes,2.0,0.0,,Program D,No,4.0,4.0,5.0,3.0,3.0,5.0,3.0,2.0,5.0,4.0,1.0,2.0,3.0,3.0,9.0,0.0,3.0,2.0,1.0,,0.0,6.0,6.0,6.0,6.0,6.0,0.0,5.0,6.0,6.0,1.0,4.0,2.0,6.0,4.0,3.0,2.0,2.0,6.0,6.0,6.0,6.0,2.0,5.0,6.0,5.0,3.0,6.0,2.0,6.0,99.0,99.0,6.0,1.0,1.0,4.0,99.0,6.0,2.0,6.0,6.0,6.0,1.0,1.0,2.0,2.0,1.0,2.0,6.0,3.0,5.0,1.0,,5.0,5.0,5.0,5.0,4.0,5.0,5.0,5.0,5.0,5.0,1.0,4.0,1.0,1.0,1.0,6.0,1.0,1.0,5.0,4.0,4.0,1.0,1.0,3.0,1.0,3.0,,1.0,6.0,6.0,6.0,6.0,3.0,"Our office is closed & folks work remote. I'm already FT remote, and this doesn't affect me personally, but there are still 2-3 people who are going into the office daily. And I am angry/upset/irritated at their cavalier attitude. One of them think that the lockdown is ""lame."" I can't say anything to higher ups, because they do not seem worried about this action/attitude. It stresses me greatly, even though it does not affect me personally.",4.0,2.0,4.666667,1.666667,6.0,5.333333,5.0,4.9
51642,3908,2020-04-04 06:37:48,EN,56,Female,PhD/Doctorate,Up to 9 years of school,Full time employed,United States,no,North Carolina (NC),Married/cohabiting,0.0,Not sure,Life carries on with minor changes,1.0,0.0,Program A,,No,1.0,3.0,4.0,4.0,3.0,2.0,4.0,4.0,4.0,1.0,2.0,2.0,3.0,7.0,10.0,4.0,7.0,9.0,6.0,10.0,,6.0,6.0,6.0,6.0,6.0,0.0,6.0,6.0,6.0,1.0,4.0,4.0,6.0,5.0,5.0,5.0,5.0,1.0,5.0,6.0,5.0,4.0,5.0,5.0,5.0,1.0,6.0,4.0,6.0,99.0,5.0,5.0,5.0,99.0,4.0,99.0,6.0,6.0,6.0,6.0,5.0,3.0,2.0,2.0,2.0,2.0,5.0,4.0,2.0,4.0,4.0,,5.0,6.0,5.0,6.0,6.0,5.0,6.0,6.0,6.0,5.0,2.0,4.0,5.0,3.0,5.0,5.0,1.0,1.0,5.0,4.0,4.0,5.0,5.0,4.0,1.0,3.0,"The local and state government response is favorable, but the federal government is a disaster.",3.0,6.0,4.0,3.0,6.0,4.0,"I am able to work remotely and have minimal contact with others, but my spouse is going to work every day because he is considered essential services in professional services (legal/attorney/barrister), so he is still interacting with the public when they come to his office. They have put guidelines in place to limit the number of people to those who must sign documents, maintaining distance, and cleaning, but still people are coming in from outside. The current laws do not allow his work to be done remotely as documents require a wet signature vs digital. This is not at the level that someone who works in a grocery store would experience, but still he is still seeing the public.   I worry about economic fallout. My husband's work will likely drop off as people will no longer sign contracts for new homes. My university has instituted an immediate budget freeze. i am worried about enrollment for fall. I am up for promotion, and they say these promotion raises will continue as planned. I had planned for a new car, but this is off the table now. I am not really driving right now either.   We have money in savings and will likely be OK provided we stay healthy.  We learned a lot from the 2008-2009 recession to live very modestly.  We do not have children, so we do not have that extra level of stress.   I worry about my students who work in jobs where they are exposed. They are dealing with a lot of additional stress from finances or family while they try to complete their coursework.   ",2.4,2.333333,4.333333,5.333333,5.333333,4.333333,5.666667,5.6
51966,1111,2020-04-04 04:47:23,EN,69,Female,"College degree, bachelor, master",Up to 12 years of school,Retired,United States,no,Indiana,Married/cohabiting,0.0,Yes,Isolated,1.0,0.0,,Program C,No,2.0,3.0,3.0,4.0,2.0,1.0,4.0,3.0,3.0,2.0,1.0,1.0,3.0,5.0,8.0,5.0,4.0,8.0,8.0,8.0,3.0,6.0,6.0,6.0,6.0,6.0,2.0,5.0,6.0,6.0,1.0,4.0,5.0,4.0,2.0,4.0,3.0,2.0,6.0,4.0,5.0,4.0,4.0,3.0,5.0,5.0,3.0,5.0,99.0,99.0,99.0,99.0,4.0,2.0,1.0,1.0,99.0,6.0,4.0,6.0,6.0,6.0,99.0,99.0,1.0,2.0,2.0,4.0,4.0,2.0,5.0,5.0,Very distressed over the precarious situation of the homeless and those in prison,6.0,5.0,6.0,5.0,6.0,5.0,6.0,6.0,5.0,6.0,5.0,6.0,5.0,1.0,1.0,4.0,1.0,1.0,5.0,4.0,3.0,4.0,4.0,4.0,1.0,4.0,"I am retired so the colleague questions don't apply. Also had issues with the word ""dedicating"" which implies a single-mindedness that I found too strong.",4.0,5.0,5.0,5.0,5.0,4.0,I live in a lightly populated area that is heavily forested so I can walk daily for 3-5 miles without having to worry about seeing anyone. This used to be something I took for granted| now I feel very grateful and lucky.,2.5,1.666667,3.0,2.0,4.333333,3.666667,4.666667,5.6
51970,1187,2020-04-04 04:47:59,DE,45,Female,"College degree, bachelor, master",College degree,Student,United States,yes,New York,Married/cohabiting,1.0,No,Life carries on with minor changes,1.0,1.0,Program A,,No,2.0,2.0,2.0,4.0,5.0,2.0,4.0,4.0,2.0,1.0,3.0,1.0,1.0,2.0,10.0,3.0,5.0,4.0,2.0,2.0,4.0,1.0,4.0,3.0,6.0,6.0,1.0,4.0,4.0,4.0,3.0,4.0,3.0,4.0,4.0,3.0,5.0,4.0,3.0,5.0,3.0,4.0,5.0,5.0,4.0,3.0,3.0,3.0,,4.0,2.0,2.0,2.0,3.0,2.0,6.0,3.0,5.0,5.0,1.0,2.0,3.0,4.0,2.0,2.0,1.0,1.0,3.0,4.0,2.0,4.0,4.0,,6.0,6.0,6.0,6.0,6.0,6.0,6.0,6.0,5.0,6.0,5.0,5.0,4.0,4.0,4.0,4.0,1.0,1.0,5.0,6.0,4.0,4.0,5.0,4.0,5.0,5.0,,5.0,5.0,6.0,4.0,5.0,6.0,,1.8,1.666667,4.0,4.333333,4.0,3.666667,3.333333,5.9
52753,1379,2020-04-04 02:50:12,EN,60,Other/would rather not say,"College degree, bachelor, master",Some College or equivalent,Not employed,United States,no,California,Single,0.0,Yes,Life carries on with minor changes,0.0,0.0,,Program D,No,2.0,1.0,1.0,5.0,5.0,1.0,5.0,5.0,1.0,1.0,3.0,1.0,1.0,7.0,9.0,0.0,5.0,7.0,1.0,6.0,0.0,4.0,4.0,4.0,6.0,6.0,2.0,6.0,3.0,5.0,1.0,2.0,2.0,5.0,1.0,6.0,2.0,1.0,5.0,5.0,6.0,4.0,1.0,6.0,6.0,4.0,2.0,6.0,3.0,99.0,99.0,1.0,1.0,2.0,99.0,99.0,99.0,6.0,4.0,1.0,1.0,4.0,99.0,2.0,5.0,1.0,1.0,1.0,3.0,1.0,4.0,5.0,,6.0,6.0,2.0,6.0,6.0,4.0,6.0,5.0,6.0,5.0,1.0,5.0,6.0,2.0,3.0,5.0,4.0,4.0,6.0,4.0,4.0,4.0,3.0,3.0,6.0,1.0,,1.0,2.0,2.0,4.0,4.0,2.0,,1.1,1.666667,2.333333,1.666667,5.0,6.0,5.0,5.2
53009,489,2020-04-04 01:57:11,EN,28,Female,"College degree, bachelor, master",PhD/Doctorate,Full time employed,United States,no,NY,Single,0.0,Yes,Isolated,0.0,0.0,,Program C,Yes,5.0,5.0,5.0,2.0,1.0,5.0,1.0,2.0,5.0,5.0,5.0,5.0,5.0,3.0,6.0,,,3.0,1.0,5.0,,5.0,6.0,5.0,6.0,6.0,0.0,6.0,6.0,6.0,5.0,2.0,4.0,5.0,5.0,4.0,6.0,6.0,2.0,4.0,6.0,5.0,4.0,2.0,4.0,6.0,3.0,6.0,4.0,6.0,99.0,6.0,6.0,6.0,99.0,99.0,99.0,6.0,4.0,5.0,6.0,6.0,5.0,5.0,3.0,6.0,6.0,5.0,5.0,2.0,6.0,3.0,,1.0,1.0,2.0,2.0,2.0,2.0,2.0,1.0,2.0,1.0,1.0,1.0,4.0,1.0,4.0,2.0,1.0,1.0,3.0,4.0,4.0,1.0,2.0,4.0,1.0,1.0,,3.0,4.0,5.0,5.0,5.0,1.0,,4.8,5.0,4.333333,5.666667,5.0,3.0,5.333333,1.6
53084,665,2020-04-04 01:47:36,EN,53,Male,PhD/Doctorate,College degree,Full time employed,United States,no,,Married/cohabiting,2.0,Yes,Isolated,4.0,0.0,Program B,,No,3.0,5.0,2.0,4.0,2.0,2.0,5.0,3.0,5.0,5.0,2.0,5.0,5.0,4.0,7.0,,5.0,,5.0,5.0,,1.0,1.0,1.0,1.0,1.0,0.0,6.0,5.0,5.0,5.0,5.0,4.0,4.0,2.0,4.0,2.0,2.0,4.0,5.0,5.0,5.0,4.0,3.0,4.0,4.0,2.0,4.0,3.0,6.0,6.0,2.0,4.0,6.0,1.0,6.0,99.0,6.0,4.0,1.0,1.0,1.0,6.0,6.0,2.0,5.0,6.0,1.0,1.0,1.0,6.0,6.0,,5.0,5.0,5.0,4.0,5.0,4.0,5.0,5.0,4.0,6.0,1.0,3.0,3.0,2.0,3.0,1.0,4.0,3.0,1.0,3.0,1.0,3.0,3.0,3.0,3.0,1.0,,1.0,5.0,5.0,3.0,1.0,1.0,,3.2,4.0,3.0,2.333333,5.0,3.333333,4.333333,4.8
53118,769,2020-04-04 01:46:31,EN,48,Female,"College degree, bachelor, master",Up to 12 years of school,Full time employed,United States,no,NY,Divorced/widowed,0.0,Yes,Isolated,0.0,0.0,,Program D,No,4.0,4.0,4.0,4.0,4.0,3.0,4.0,3.0,2.0,3.0,5.0,4.0,5.0,2.0,3.0,0.0,4.0,3.0,3.0,5.0,0.0,5.0,6.0,5.0,6.0,6.0,0.0,5.0,6.0,6.0,5.0,2.0,4.0,5.0,5.0,3.0,5.0,5.0,3.0,6.0,6.0,5.0,5.0,5.0,5.0,4.0,3.0,5.0,99.0,5.0,99.0,5.0,5.0,5.0,2.0,99.0,99.0,6.0,6.0,5.0,5.0,6.0,5.0,5.0,5.0,5.0,5.0,99.0,3.0,2.0,6.0,5.0,,4.0,4.0,5.0,5.0,5.0,5.0,5.0,5.0,5.0,5.0,4.0,5.0,5.0,3.0,5.0,5.0,2.0,2.0,5.0,2.0,4.0,5.0,5.0,4.0,3.0,3.0,,5.0,5.0,5.0,5.0,5.0,2.0,,2.9,4.666667,4.666667,4.666667,5.666667,4.0,4.333333,4.8
53275,817,2020-04-05 01:26:48,BG,46,Female,"College degree, bachelor, master",College degree,Student,United States,yes,,Married/cohabiting,2.0,No,,2.0,1.0,Program A,,No,2.0,2.0,3.0,4.0,4.0,2.0,4.0,4.0,1.0,2.0,2.0,1.0,2.0,6.0,9.0,8.0,9.0,9.0,5.0,10.0,9.0,5.0,5.0,5.0,5.0,6.0,5.0,5.0,5.0,6.0,2.0,4.0,3.0,3.0,2.0,4.0,5.0,2.0,5.0,4.0,5.0,3.0,2.0,3.0,5.0,5.0,2.0,5.0,4.0,5.0,5.0,5.0,5.0,5.0,2.0,4.0,5.0,3.0,2.0,5.0,6.0,5.0,5.0,5.0,2.0,4.0,5.0,5.0,5.0,2.0,5.0,4.0,,4.0,4.0,5.0,5.0,5.0,4.0,4.0,5.0,3.0,4.0,5.0,5.0,5.0,3.0,5.0,5.0,2.0,2.0,5.0,5.0,2.0,5.0,5.0,5.0,2.0,4.0,,3.0,4.0,2.0,2.0,2.0,2.0,<U+041A><U+0430><U+043A><U+0432><U+043E> <U+0449>e <U+0441><U+0442><U+0430><U+043D><U+0435> <U+0441> <U+0434><U+0435><U+0446><U+0430><U+0442><U+0430> <U+043C><U+0438> <U+0430><U+043A><U+043E> <U+0443><U+043C><U+0440><U+0430>,2.0,1.666667,2.666667,3.0,4.0,4.333333,5.0,4.3
53606,1247,2020-04-04 00:44:01,EN,63,Female,,College degree,Full time employed,United States,no,California,Married/cohabiting,1.0,Yes,Isolated,1.0,0.0,,Program C,No,4.0,4.0,4.0,4.0,3.0,3.0,4.0,4.0,4.0,3.0,2.0,3.0,3.0,8.0,9.0,8.0,9.0,7.0,9.0,5.0,5.0,6.0,1.0,1.0,6.0,6.0,0.0,5.0,6.0,6.0,2.0,3.0,4.0,5.0,4.0,5.0,5.0,4.0,2.0,5.0,6.0,4.0,2.0,6.0,6.0,5.0,1.0,6.0,2.0,2.0,99.0,2.0,6.0,1.0,1.0,5.0,99.0,6.0,1.0,6.0,6.0,5.0,3.0,2.0,2.0,2.0,2.0,4.0,5.0,1.0,5.0,1.0,,6.0,6.0,4.0,6.0,6.0,6.0,6.0,6.0,6.0,6.0,5.0,5.0,6.0,4.0,4.0,5.0,1.0,1.0,4.0,6.0,6.0,6.0,5.0,5.0,6.0,4.0,,4.0,5.0,6.0,6.0,4.0,5.0,I am due to retire in June and will need to find health insurance that may not be as good as the coverage I have had in case I get sick,3.1,2.666667,3.666667,4.666667,5.0,5.666667,5.666667,5.8
53854,354,2020-04-04 23:43:03,EN,25,Female,Up to 12 years of school,College degree,Not employed,United States,no,Iowa,Married/cohabiting,0.0,Yes,Life carries on with minor changes,1.0,0.0,,Program C,Not sure,4.0,5.0,5.0,3.0,3.0,5.0,3.0,3.0,3.0,4.0,4.0,3.0,4.0,3.0,8.0,5.0,4.0,7.0,3.0,8.0,1.0,5.0,6.0,6.0,6.0,6.0,1.0,,,,,,,,,,,,,,,,,,,,,,,,,,,,,,,,,,,,,,,,,,,,,,,,,,,,,,,,,,,,,,,,,,,,,,,,,,,,,,,,,3.8,3.666667,,,,,,
54070,752,2020-04-03 22:50:03,EN,42,Female,"College degree, bachelor, master",College degree,Full time employed,United States,no,Minnesota,Married/cohabiting,2.0,Yes,Isolated,1.0,2.0,,Program C,No,2.0,1.0,3.0,4.0,4.0,3.0,4.0,4.0,3.0,2.0,3.0,2.0,3.0,7.0,9.0,4.0,4.0,9.0,3.0,6.0,1.0,6.0,6.0,5.0,6.0,6.0,0.0,6.0,3.0,4.0,5.0,2.0,3.0,2.0,2.0,6.0,5.0,6.0,2.0,5.0,6.0,4.0,2.0,5.0,5.0,5.0,2.0,5.0,2.0,6.0,6.0,5.0,5.0,6.0,1.0,4.0,4.0,6.0,2.0,5.0,6.0,6.0,5.0,4.0,2.0,4.0,5.0,5.0,2.0,1.0,5.0,4.0,Worried about the extent to which our federal government will go| how bad it will get with no intervention,6.0,6.0,5.0,6.0,6.0,6.0,5.0,6.0,6.0,6.0,4.0,6.0,6.0,1.0,5.0,3.0,1.0,1.0,5.0,4.0,5.0,4.0,5.0,4.0,1.0,5.0,,3.0,4.0,4.0,4.0,4.0,3.0,"Stronger belief and appreciation for state, county, and city government and leadership",2.2,2.666667,1.666667,5.333333,5.0,5.0,5.0,5.8
54108,626,2020-04-03 22:37:30,EN,41,Male,"College degree, bachelor, master",Up to 12 years of school,Full time employed,United States,no,California,Married/cohabiting,1.0,No,Life carries on with minor changes,1.0,1.0,,Program D,No,3.0,2.0,2.0,4.0,4.0,1.0,4.0,4.0,1.0,1.0,2.0,2.0,2.0,3.0,8.0,3.0,4.0,1.0,7.0,6.0,7.0,4.0,4.0,4.0,6.0,5.0,7.0,5.0,5.0,5.0,2.0,3.0,4.0,2.0,2.0,5.0,3.0,5.0,3.0,4.0,4.0,2.0,5.0,5.0,3.0,3.0,4.0,6.0,4.0,6.0,6.0,4.0,4.0,2.0,1.0,1.0,3.0,6.0,3.0,3.0,4.0,3.0,2.0,1.0,2.0,2.0,4.0,2.0,2.0,2.0,5.0,2.0,,6.0,5.0,6.0,5.0,6.0,5.0,6.0,6.0,5.0,6.0,1.0,4.0,1.0,4.0,1.0,3.0,4.0,4.0,4.0,2.0,5.0,5.0,6.0,4.0,1.0,2.0,,2.0,3.0,4.0,3.0,2.0,2.0,,1.8,2.0,2.0,4.0,3.333333,3.333333,4.0,5.6
54191,482,2020-04-03 22:12:59,EN,44,Female,PhD/Doctorate,Some College or equivalent,Full time employed,United States,no,New Mexico,Married/cohabiting,3.0,Yes,Isolated,1.0,2.0,Program A,,No,3.0,3.0,4.0,3.0,3.0,4.0,4.0,3.0,3.0,3.0,2.0,1.0,3.0,7.0,9.0,3.0,8.0,8.0,7.0,9.0,2.0,5.0,6.0,5.0,5.0,5.0,0.0,6.0,6.0,6.0,5.0,4.0,2.0,5.0,5.0,4.0,2.0,2.0,5.0,6.0,4.0,6.0,2.0,5.0,6.0,6.0,2.0,6.0,2.0,5.0,2.0,2.0,2.0,2.0,1.0,5.0,5.0,5.0,2.0,5.0,5.0,6.0,4.0,2.0,2.0,3.0,2.0,3.0,6.0,1.0,5.0,6.0,,5.0,4.0,5.0,4.0,5.0,5.0,5.0,5.0,5.0,5.0,5.0,2.0,4.0,1.0,4.0,4.0,5.0,4.0,5.0,2.0,5.0,6.0,4.0,4.0,1.0,5.0,,4.0,5.0,4.0,2.0,5.0,3.0,,3.1,2.0,4.333333,2.0,5.333333,5.333333,5.666667,4.8
54208,1281,2020-04-04 22:19:53,EN,51,Female,"Some College, short continuing education or equivalent",Some College or equivalent,Not employed,United States,no,Illinois,Married/cohabiting,1.0,Yes,Isolated,1.0,1.0,,Program D,No,5.0,4.0,5.0,3.0,3.0,5.0,3.0,1.0,5.0,4.0,3.0,4.0,5.0,7.0,10.0,7.0,9.0,7.0,9.0,9.0,6.0,6.0,1.0,1.0,1.0,1.0,3.0,6.0,6.0,6.0,1.0,1.0,1.0,5.0,5.0,6.0,6.0,6.0,4.0,6.0,6.0,6.0,1.0,6.0,6.0,5.0,2.0,6.0,99.0,99.0,6.0,6.0,5.0,6.0,4.0,6.0,4.0,5.0,4.0,6.0,6.0,5.0,99.0,4.0,5.0,4.0,6.0,6.0,1.0,1.0,5.0,1.0,"I am mostly concerned about my son and my increased risk due to asthma. The thought of either one or both of us in the hospital, separated and alone, terrifies me!  My son is 4. I am homeschooling him, but am worried about the long-term social and emotional effects on him at this early stage of development. He is outgoing, but now must stay away from everyone.",,,,,,,,,,,,,,,,,,,,,,,,,,,,,,,,,,,4.2,4.0,3.666667,5.0,6.0,6.0,5.333333,
54265,820,2020-04-03 21:44:47,EN,37,Other/would rather not say,"College degree, bachelor, master",College degree,Full time employed,United States,no,Washington State,Single,0.0,Yes,Isolated,0.0,0.0,Program B,,No,3.0,5.0,5.0,2.0,3.0,3.0,4.0,2.0,3.0,3.0,4.0,5.0,5.0,7.0,10.0,0.0,3.0,7.0,3.0,5.0,1.0,6.0,6.0,6.0,6.0,6.0,0.0,2.0,6.0,6.0,1.0,1.0,2.0,4.0,4.0,4.0,4.0,4.0,3.0,6.0,6.0,6.0,1.0,6.0,6.0,5.0,1.0,6.0,2.0,6.0,99.0,5.0,6.0,5.0,99.0,99.0,99.0,6.0,4.0,6.0,6.0,6.0,6.0,3.0,5.0,5.0,6.0,99.0,5.0,6.0,6.0,2.0,,6.0,6.0,5.0,6.0,5.0,5.0,5.0,6.0,5.0,4.0,2.0,1.0,6.0,1.0,5.0,5.0,4.0,5.0,5.0,5.0,2.0,4.0,5.0,5.0,2.0,4.0,,6.0,6.0,6.0,4.0,6.0,1.0,,3.5,4.666667,3.666667,4.0,6.0,6.0,5.666667,5.3
54271,946,2020-04-03 21:40:13,DA,57,Female,"Some College, short continuing education or equivalent",Up to 9 years of school,Part time employed,United States,yes,,Married/cohabiting,2.0,Yes,Isolated,2.0,0.0,Program A,,No,2.0,4.0,3.0,4.0,1.0,3.0,4.0,3.0,4.0,1.0,3.0,1.0,4.0,6.0,9.0,9.0,9.0,8.0,8.0,4.0,8.0,5.0,5.0,5.0,5.0,5.0,6.0,6.0,5.0,5.0,1.0,4.0,3.0,6.0,2.0,4.0,5.0,6.0,5.0,5.0,6.0,6.0,2.0,4.0,6.0,5.0,1.0,4.0,6.0,99.0,5.0,1.0,3.0,5.0,3.0,2.0,99.0,6.0,2.0,6.0,6.0,6.0,99.0,5.0,2.0,2.0,5.0,4.0,2.0,1.0,6.0,99.0,,6.0,6.0,5.0,6.0,6.0,5.0,6.0,6.0,3.0,6.0,6.0,5.0,6.0,4.0,5.0,5.0,1.0,5.0,5.0,6.0,4.0,5.0,5.0,5.0,5.0,5.0,,6.0,6.0,6.0,4.0,6.0,5.0,,2.9,2.666667,3.666667,4.333333,5.666667,5.0,5.0,5.5
54273,8290,2020-04-04 23:41:46,EN,32,Female,"Some College, short continuing education or equivalent",College degree,Not employed,United States,no,California,Married/cohabiting,2.0,Yes,Life carries on with minor changes,1.0,2.0,Program A,,No,3.0,4.0,3.0,3.0,4.0,4.0,3.0,4.0,3.0,2.0,1.0,2.0,3.0,,,,,,,,,,,,,,,,,,,,,,,,,,,,,,,,,,,,,,,,,,,,,,,,,,,,,,,,,,,,,,,,,,,,,,,,,,,,,,,,,,,,,,,,,,,,,,,2.9,2.0,,,,,,
54275,776,2020-04-04 21:36:08,EN,59,Female,"College degree, bachelor, master",College degree,Full time employed,United States,no,Kentucky,Married/cohabiting,1.0,Yes,Life carries on with minor changes,1.0,1.0,,Program C,No,2.0,1.0,3.0,5.0,5.0,2.0,3.0,4.0,3.0,3.0,1.0,3.0,1.0,7.0,8.0,5.0,8.0,7.0,8.0,7.0,5.0,5.0,5.0,4.0,6.0,6.0,3.0,6.0,5.0,5.0,2.0,5.0,2.0,5.0,2.0,6.0,6.0,6.0,1.0,5.0,5.0,5.0,1.0,6.0,6.0,4.0,1.0,6.0,3.0,1.0,6.0,1.0,2.0,3.0,3.0,5.0,5.0,1.0,5.0,3.0,5.0,6.0,5.0,6.0,1.0,5.0,1.0,2.0,1.0,2.0,2.0,1.0,,6.0,6.0,6.0,6.0,6.0,5.0,6.0,6.0,6.0,6.0,4.0,6.0,5.0,3.0,4.0,6.0,1.0,1.0,5.0,6.0,6.0,5.0,4.0,4.0,4.0,5.0,,1.0,4.0,4.0,4.0,5.0,1.0,,2.1,1.666667,2.666667,6.0,5.0,6.0,5.333333,5.9
54308,1262,2020-04-03 21:23:21,EN,61,Female,"College degree, bachelor, master",Some College or equivalent,Full time employed,United States,no,Colorado,Married/cohabiting,1.0,Yes,Life carries on with minor changes,2.0,0.0,Program A,,No,1.0,1.0,3.0,4.0,4.0,1.0,4.0,4.0,1.0,1.0,2.0,1.0,2.0,7.0,8.0,10.0,6.0,7.0,6.0,9.0,4.0,6.0,6.0,6.0,,5.0,1.0,5.0,5.0,5.0,2.0,1.0,2.0,4.0,2.0,6.0,5.0,5.0,2.0,6.0,6.0,5.0,2.0,6.0,5.0,6.0,2.0,6.0,2.0,1.0,99.0,2.0,3.0,5.0,2.0,2.0,99.0,5.0,6.0,5.0,5.0,5.0,1.0,2.0,2.0,2.0,2.0,99.0,3.0,2.0,5.0,2.0,Ignorance and hate,6.0,5.0,5.0,6.0,5.0,6.0,5.0,6.0,5.0,6.0,4.0,5.0,5.0,5.0,5.0,4.0,1.0,2.0,5.0,5.0,5.0,5.0,5.0,5.0,4.0,4.0,Zoom is my reality,3.0,5.0,5.0,4.0,2.0,4.0,"Volatility of economic markets,  hate mongering,  ignorance breeding suspicion,  lack of adequately stocked health care facilities.",1.6,1.666667,2.333333,5.0,5.666667,5.333333,5.666667,5.5
54360,5263,2020-04-03 21:59:54,EN,27,Other/would rather not say,"Some College, short continuing education or equivalent",Up to 12 years of school,Retired,United States,no,California,Married/cohabiting,1.0,Yes,Life carries on with minor changes,1.0,1.0,Program A,,No,2.0,5.0,3.0,4.0,3.0,4.0,3.0,3.0,3.0,3.0,3.0,3.0,4.0,6.0,8.0,1.0,2.0,3.0,6.0,10.0,2.0,5.0,5.0,5.0,6.0,6.0,0.0,6.0,6.0,6.0,2.0,3.0,2.0,3.0,3.0,2.0,6.0,4.0,4.0,2.0,5.0,3.0,3.0,4.0,5.0,4.0,4.0,3.0,6.0,2.0,4.0,6.0,5.0,6.0,4.0,2.0,2.0,2.0,4.0,6.0,6.0,6.0,2.0,2.0,2.0,3.0,2.0,2.0,3.0,2.0,5.0,2.0,,5.0,5.0,5.0,5.0,5.0,4.0,5.0,6.0,5.0,5.0,4.0,1.0,5.0,2.0,5.0,6.0,6.0,6.0,5.0,4.0,3.0,6.0,2.0,6.0,5.0,4.0,,2.0,2.0,2.0,2.0,3.0,2.0,,3.1,3.333333,3.666667,4.333333,3.333333,4.333333,3.333333,5.0
54363,1759,2020-04-04 21:00:16,EN,71,Female,"College degree, bachelor, master",Up to 12 years of school,Part time employed,United States,no,California,Married/cohabiting,0.0,No,Isolated,1.0,0.0,,Program C,Not sure,3.0,4.0,4.0,4.0,3.0,3.0,3.0,4.0,3.0,2.0,3.0,3.0,4.0,6.0,10.0,1.0,5.0,5.0,5.0,2.0,5.0,3.0,3.0,3.0,3.0,3.0,5.0,5.0,5.0,5.0,4.0,4.0,3.0,5.0,4.0,3.0,5.0,5.0,2.0,4.0,5.0,3.0,2.0,5.0,5.0,4.0,1.0,5.0,3.0,99.0,99.0,6.0,,6.0,99.0,5.0,4.0,6.0,99.0,3.0,3.0,4.0,99.0,99.0,1.0,4.0,,6.0,4.0,1.0,6.0,5.0,Being in fear..and worrying a out my grandchildren and the affect this will have on them.,6.0,4.0,5.0,6.0,6.0,5.0,6.0,6.0,5.0,6.0,2.0,6.0,6.0,3.0,4.0,5.0,1.0,4.0,6.0,5.0,4.0,5.0,2.0,5.0,6.0,4.0,Gardening..riding around with my grands.,1.0,4.0,3.0,5.0,5.0,2.0,Yes our freedom is gone to socialize and I  read that they are trying to push through a gun control bill. That's scary..We are hunters and fishermen.,2.9,3.333333,4.333333,5.0,4.0,5.0,5.0,5.5
54364,557,2020-04-04 20:39:14,EN,48,Female,"College degree, bachelor, master",College degree,Full time employed,United States,no,Ca,Married/cohabiting,2.0,Yes,Isolated,3.0,0.0,,Program D,No,4.0,3.0,5.0,3.0,2.0,2.0,3.0,2.0,3.0,4.0,,2.0,3.0,5.0,8.0,1.0,1.0,1.0,1.0,1.0,1.0,6.0,6.0,6.0,6.0,6.0,0.0,4.0,5.0,5.0,3.0,5.0,1.0,5.0,2.0,3.0,3.0,2.0,5.0,3.0,5.0,4.0,2.0,5.0,5.0,4.0,2.0,6.0,2.0,3.0,5.0,6.0,2.0,2.0,99.0,4.0,99.0,6.0,5.0,6.0,6.0,5.0,4.0,4.0,4.0,3.0,5.0,5.0,5.0,2.0,5.0,3.0,,,,,,,,,,,,,,,,,,,,,,,,,,,,,,,,,,,,3.5,2.5,3.666667,2.333333,4.0,5.0,5.0,
54390,663,2020-04-03 20:19:12,EN,21,Other/would rather not say,"Some College, short continuing education or equivalent",Up to 12 years of school,Part time employed,United States,no,Indiana,Other or would rather not say,0.0,Yes,Isolated,3.0,2.0,Program A,,No,4.0,5.0,5.0,3.0,2.0,5.0,3.0,2.0,4.0,5.0,2.0,4.0,4.0,2.0,7.0,,,,,5.0,,5.0,6.0,6.0,6.0,6.0,0.0,2.0,5.0,5.0,2.0,1.0,2.0,6.0,6.0,5.0,4.0,4.0,3.0,5.0,6.0,6.0,5.0,5.0,4.0,2.0,4.0,3.0,5.0,5.0,99.0,1.0,4.0,2.0,1.0,1.0,1.0,6.0,5.0,6.0,6.0,6.0,1.0,3.0,2.0,5.0,1.0,2.0,5.0,2.0,4.0,2.0,,6.0,6.0,6.0,6.0,6.0,5.0,6.0,6.0,6.0,5.0,1.0,5.0,6.0,2.0,6.0,6.0,6.0,6.0,6.0,1.0,5.0,1.0,1.0,4.0,2.0,1.0,,2.0,2.0,2.0,2.0,6.0,1.0,,4.2,3.333333,4.666667,4.0,5.666667,3.666667,2.666667,5.8
54399,1719,2020-04-03 20:31:39,EN,23,Female,"Some College, short continuing education or equivalent",College degree,Student,United States,no,NC,Single,0.0,Yes,Isolated,2.0,0.0,,Program D,No,3.0,5.0,5.0,4.0,4.0,4.0,3.0,4.0,4.0,3.0,5.0,5.0,5.0,8.0,9.0,6.0,7.0,5.0,9.0,8.0,4.0,6.0,6.0,4.0,6.0,5.0,0.0,6.0,5.0,6.0,1.0,5.0,1.0,5.0,4.0,5.0,5.0,5.0,2.0,5.0,5.0,6.0,2.0,6.0,6.0,5.0,5.0,6.0,99.0,6.0,99.0,99.0,4.0,6.0,1.0,6.0,99.0,2.0,4.0,5.0,6.0,6.0,5.0,6.0,99.0,6.0,5.0,1.0,5.0,1.0,6.0,1.0,,6.0,6.0,6.0,5.0,6.0,6.0,6.0,6.0,6.0,6.0,1.0,4.0,6.0,1.0,6.0,4.0,1.0,1.0,4.0,4.0,1.0,1.0,5.0,5.0,4.0,4.0,,5.0,4.0,2.0,4.0,5.0,1.0,,3.3,5.0,3.666667,5.0,5.333333,5.666667,4.333333,5.9
54421,692,2020-04-03 20:03:24,EN,62,Female,"College degree, bachelor, master",College degree,Self-employed,United States,no,Michigan,Married/cohabiting,3.0,Yes,Isolated,4.0,0.0,,Program C,No,2.0,4.0,4.0,4.0,3.0,2.0,5.0,3.0,3.0,2.0,4.0,3.0,3.0,6.0,8.0,4.0,6.0,7.0,7.0,8.0,1.0,4.0,6.0,6.0,6.0,6.0,1.0,4.0,4.0,4.0,3.0,4.0,3.0,5.0,2.0,6.0,3.0,3.0,4.0,5.0,5.0,6.0,4.0,4.0,5.0,5.0,3.0,6.0,3.0,3.0,2.0,6.0,4.0,5.0,2.0,5.0,99.0,6.0,5.0,6.0,5.0,6.0,5.0,4.0,3.0,6.0,5.0,5.0,3.0,3.0,5.0,5.0,,5.0,5.0,5.0,4.0,4.0,5.0,4.0,5.0,5.0,5.0,2.0,4.0,5.0,3.0,4.0,4.0,3.0,3.0,4.0,5.0,4.0,3.0,4.0,5.0,4.0,1.0,,2.0,5.0,5.0,3.0,4.0,4.0,,2.6,3.333333,2.666667,3.0,5.333333,4.0,5.0,4.7
54437,489,2020-04-03 19:52:00,EN,25,Female,"College degree, bachelor, master",College degree,Full time employed,United States,no,DC,Married/cohabiting,0.0,Yes,Isolated,2.0,0.0,Program A,,No,4.0,5.0,4.0,4.0,3.0,2.0,3.0,3.0,3.0,2.0,2.0,1.0,5.0,3.0,7.0,0.0,2.0,5.0,0.0,8.0,0.0,6.0,6.0,6.0,6.0,6.0,0.0,5.0,6.0,6.0,2.0,1.0,2.0,5.0,6.0,2.0,5.0,4.0,3.0,4.0,5.0,4.0,2.0,4.0,5.0,6.0,1.0,6.0,99.0,6.0,99.0,5.0,5.0,5.0,99.0,1.0,99.0,4.0,5.0,6.0,6.0,6.0,6.0,5.0,5.0,6.0,6.0,6.0,6.0,4.0,5.0,5.0,,5.0,5.0,5.0,5.0,5.0,5.0,5.0,5.0,5.0,5.0,3.0,1.0,6.0,1.0,5.0,1.0,5.0,5.0,5.0,4.0,5.0,4.0,5.0,5.0,1.0,3.0,,2.0,6.0,6.0,2.0,4.0,1.0,,3.1,2.666667,5.333333,4.333333,4.333333,4.666667,6.0,5.0
54452,778,2020-04-03 19:46:41,EN,38,Female,"Some College, short continuing education or equivalent",Some College or equivalent,Full time employed,United States,no,Oregon,Married/cohabiting,4.0,No,Isolated,3.0,4.0,,Program C,Yes,2.0,3.0,3.0,3.0,4.0,3.0,4.0,4.0,3.0,3.0,3.0,3.0,4.0,4.0,8.0,0.0,4.0,4.0,0.0,4.0,0.0,1.0,1.0,1.0,5.0,6.0,0.0,2.0,4.0,4.0,2.0,2.0,3.0,2.0,3.0,4.0,2.0,2.0,5.0,4.0,6.0,6.0,4.0,4.0,4.0,2.0,5.0,4.0,6.0,4.0,5.0,2.0,2.0,5.0,6.0,3.0,6.0,6.0,4.0,1.0,1.0,3.0,2.0,2.0,2.0,2.0,5.0,1.0,2.0,2.0,6.0,1.0,,5.0,5.0,5.0,5.0,5.0,4.0,5.0,5.0,5.0,5.0,2.0,3.0,4.0,3.0,3.0,4.0,1.0,6.0,6.0,3.0,4.0,2.0,1.0,5.0,5.0,1.0,Video game is specifically Minecraft,2.0,5.0,5.0,3.0,4.0,4.0,"I have been watching a lot of late night talk show hosts such as Trevor Noah, John Oliver, and Seth Meyers because they inform, but also give a comedic spin which helps lighten the gravity of the situation.",2.6,3.333333,2.666667,2.0,5.333333,3.666667,2.666667,4.9
54457,3688,2020-04-04 20:34:01,EN,38,Male,"Some College, short continuing education or equivalent",College degree,Full time employed,United States,no,California,Single,0.0,No,Life carries on as usual,0.0,0.0,,,,1.0,1.0,1.0,5.0,5.0,1.0,5.0,4.0,1.0,1.0,1.0,1.0,1.0,5.0,8.0,5.0,6.0,7.0,5.0,1.0,8.0,1.0,1.0,1.0,2.0,3.0,10.0,5.0,5.0,4.0,2.0,4.0,1.0,2.0,2.0,5.0,4.0,2.0,4.0,4.0,2.0,3.0,4.0,4.0,2.0,4.0,1.0,6.0,6.0,6.0,99.0,99.0,1.0,1.0,99.0,99.0,99.0,4.0,4.0,1.0,1.0,1.0,99.0,1.0,99.0,99.0,1.0,1.0,1.0,1.0,1.0,99.0,,,,,,,,,,,,,,,,,,,,,,,,,,,,,,,,,,,,1.1,1.0,2.0,3.0,3.0,3.0,5.333333,
54476,1010,2020-04-03 19:32:37,EN,27,Female,"College degree, bachelor, master",Up to 12 years of school,Student,United States,yes,,Married/cohabiting,0.0,Yes,Isolated,1.0,0.0,,Program C,Not sure,3.0,4.0,4.0,4.0,4.0,3.0,4.0,3.0,3.0,3.0,2.0,3.0,4.0,7.0,9.0,8.0,7.0,7.0,9.0,1.0,9.0,4.0,6.0,5.0,6.0,6.0,3.0,5.0,6.0,6.0,2.0,4.0,6.0,6.0,5.0,5.0,4.0,4.0,6.0,6.0,5.0,6.0,1.0,4.0,6.0,6.0,2.0,6.0,2.0,5.0,99.0,4.0,4.0,2.0,99.0,4.0,99.0,5.0,99.0,5.0,5.0,6.0,2.0,4.0,2.0,4.0,5.0,2.0,4.0,3.0,5.0,2.0,How corrupted WHO and certain governments are. How irresponsible the spring breakers and many young people are.,6.0,5.0,5.0,6.0,6.0,6.0,6.0,6.0,6.0,6.0,5.0,6.0,6.0,4.0,5.0,4.0,2.0,6.0,,6.0,5.0,5.0,5.0,6.0,2.0,5.0,Taking care of and bond with my pets (for I stay at home for such a long time). Practicing meditation.,5.0,4.0,4.0,4.0,5.0,3.0,I personally have been coughing for a month. I dont have other symptoms and have isolated myself at home all the time. Still I worry about food security etc.,2.9,3.0,4.333333,3.0,5.666667,5.333333,5.666667,5.8
54484,362,2020-04-04 19:16:23,EN,38,Female,"Some College, short continuing education or equivalent",College degree,Full time employed,United States,yes,CA,Married/cohabiting,0.0,Not sure,Life carries on with minor changes,1.0,0.0,,,,,,,,,,,,,,,,,,,,,,,,,,,,,,,,,,,,,,,,,,,,,,,,,,,,,,,,,,,,,,,,,,,,,,,,,,,,,,,,,,,,,,,,,,,,,,,,,,,,,,,,,,,,,,,,,,,,,,
54493,932,2020-04-03 19:19:42,EN,39,Female,PhD/Doctorate,College degree,Full time employed,United States,no,Oregon,Single,0.0,No,Isolated,0.0,0.0,Program B,,No,3.0,3.0,5.0,4.0,3.0,3.0,3.0,3.0,2.0,1.0,5.0,2.0,4.0,5.0,7.0,5.0,5.0,6.0,6.0,6.0,2.0,4.0,5.0,4.0,6.0,6.0,0.0,5.0,3.0,5.0,5.0,3.0,3.0,3.0,4.0,4.0,4.0,3.0,3.0,4.0,5.0,2.0,3.0,4.0,4.0,5.0,2.0,5.0,99.0,4.0,99.0,99.0,5.0,6.0,99.0,99.0,99.0,5.0,99.0,5.0,4.0,5.0,5.0,5.0,99.0,5.0,6.0,5.0,2.0,2.0,6.0,4.0,,5.0,5.0,5.0,5.0,5.0,5.0,5.0,5.0,5.0,5.0,4.0,1.0,6.0,1.0,5.0,2.0,1.0,1.0,5.0,5.0,2.0,4.0,6.0,4.0,1.0,4.0,,4.0,4.0,3.0,4.0,3.0,1.0,,2.8,3.666667,3.333333,3.666667,3.666667,4.0,5.0,5.0
54593,897,2020-04-03 18:20:56,EN,41,Female,"Some College, short continuing education or equivalent",Some College or equivalent,Not employed,United States,no,NY,Married/cohabiting,0.0,Yes,Isolated,1.0,0.0,Program A,,No,2.0,4.0,3.0,3.0,2.0,2.0,3.0,4.0,3.0,3.0,1.0,3.0,4.0,3.0,7.0,2.0,3.0,6.0,1.0,9.0,0.0,6.0,6.0,6.0,6.0,6.0,1.0,5.0,5.0,6.0,2.0,1.0,3.0,4.0,2.0,6.0,5.0,5.0,1.0,5.0,5.0,5.0,3.0,4.0,5.0,3.0,4.0,5.0,6.0,99.0,99.0,6.0,5.0,2.0,1.0,2.0,99.0,6.0,3.0,5.0,6.0,5.0,2.0,2.0,1.0,3.0,4.0,2.0,3.0,2.0,3.0,1.0,"Lost a temp to hire job because of the virus, hiring freeze. Financial worry.",6.0,6.0,5.0,5.0,6.0,6.0,6.0,6.0,6.0,6.0,5.0,2.0,6.0,2.0,5.0,5.0,2.0,2.0,6.0,4.0,5.0,4.0,4.0,6.0,1.0,4.0,,2.0,5.0,4.0,2.0,5.0,2.0,"My governor had been a source of calm and strength, as well as positive action, in direct contrast with President Cheetolini. I used to work in my states Department of Health, Bureau of Communicable Disease Control, so I'm more aware of what's right and wrong about how this is being handled at the national level. I've never been so glad we don't have kids (by choice), as this is some end times level mismanagement here in the US. Like, criminally negligent shit going down.",2.9,2.666667,2.333333,5.333333,5.0,4.333333,3.666667,5.8
54607,2126,2020-04-03 18:30:24,EN,52,Female,"College degree, bachelor, master",Some College or equivalent,Not employed,United States,no,Texas,Married/cohabiting,7.0,Yes,Life carries on with minor changes,2.0,2.0,,Program C,No,1.0,1.0,2.0,5.0,5.0,1.0,5.0,5.0,1.0,1.0,1.0,1.0,2.0,7.0,10.0,7.0,10.0,10.0,10.0,8.0,10.0,5.0,5.0,5.0,5.0,5.0,5.0,6.0,6.0,6.0,1.0,6.0,2.0,2.0,1.0,6.0,4.0,1.0,5.0,2.0,5.0,1.0,1.0,6.0,5.0,4.0,1.0,5.0,2.0,2.0,2.0,2.0,1.0,2.0,2.0,1.0,2.0,6.0,2.0,4.0,4.0,5.0,2.0,2.0,2.0,1.0,1.0,2.0,2.0,2.0,3.0,2.0,,5.0,5.0,5.0,5.0,5.0,5.0,5.0,5.0,3.0,5.0,5.0,5.0,5.0,2.0,2.0,2.0,2.0,2.0,2.0,2.0,5.0,5.0,5.0,2.0,6.0,5.0,,5.0,5.0,2.0,5.0,2.0,2.0,,1.1,1.333333,1.333333,2.333333,2.666667,5.666667,5.0,4.8
54634,1697,2020-04-03 18:09:13,EN,56,Female,"College degree, bachelor, master",College degree,Retired,United States,no,California,Married/cohabiting,0.0,Yes,Life carries on with minor changes,,,Program A,,No,3.0,2.0,3.0,4.0,3.0,1.0,5.0,4.0,2.0,1.0,2.0,3.0,3.0,8.0,9.0,5.0,7.0,6.0,7.0,7.0,6.0,5.0,5.0,5.0,5.0,5.0,5.0,5.0,5.0,5.0,2.0,2.0,1.0,5.0,3.0,5.0,5.0,3.0,5.0,4.0,5.0,4.0,2.0,5.0,5.0,5.0,2.0,5.0,99.0,99.0,99.0,99.0,4.0,4.0,4.0,1.0,99.0,5.0,2.0,5.0,5.0,5.0,99.0,99.0,2.0,4.0,4.0,3.0,5.0,2.0,5.0,2.0,,6.0,6.0,5.0,6.0,5.0,5.0,5.0,6.0,5.0,6.0,4.0,5.0,6.0,4.0,6.0,4.0,1.0,1.0,5.0,5.0,3.0,4.0,4.0,6.0,6.0,4.0,,4.0,4.0,2.0,4.0,4.0,4.0,,2.0,2.666667,3.333333,3.333333,4.333333,5.0,5.0,5.5
54691,852,2020-04-04 17:29:55,EN,67,Other/would rather not say,"College degree, bachelor, master",College degree,Retired,United States,no,California,Married/cohabiting,1.0,Yes,Isolated,2.0,0.0,Program A,,,,,,,,,,,,,,,,,,,,,,,,,,,,,,,,,,,,,,,,,,,,,,,,,,,,,,,,,,,,,,,,,,,,,,,,,,,,,,,,,,,,,,,,,,,,,,,,,,,,,,,,,,,,,,,,,,,,,
54725,1012,2020-04-03 17:16:24,EN,68,Female,"College degree, bachelor, master",Some College or equivalent,Retired,United States,no,California,Single,0.0,Yes,Isolated,0.0,0.0,,Program D,No,3.0,4.0,5.0,3.0,3.0,2.0,3.0,3.0,5.0,3.0,4.0,2.0,4.0,7.0,10.0,1.0,7.0,8.0,7.0,8.0,,4.0,5.0,5.0,6.0,6.0,0.0,5.0,5.0,5.0,2.0,3.0,2.0,5.0,2.0,6.0,4.0,3.0,4.0,5.0,5.0,5.0,2.0,5.0,6.0,5.0,1.0,5.0,6.0,99.0,99.0,99.0,5.0,5.0,99.0,99.0,99.0,6.0,2.0,5.0,6.0,5.0,99.0,4.0,2.0,5.0,99.0,4.0,5.0,2.0,6.0,2.0,,6.0,6.0,6.0,5.0,6.0,6.0,5.0,6.0,5.0,5.0,1.0,5.0,5.0,5.0,5.0,5.0,2.0,1.0,5.0,5.0,5.0,4.0,5.0,5.0,5.0,1.0,,2.0,4.0,4.0,3.0,4.0,2.0,,3.4,3.333333,2.666667,3.333333,5.0,5.333333,5.333333,5.6
54753,1563,2020-04-03 17:19:03,EN,35,Female,"College degree, bachelor, master",College degree,Self-employed,United States,,California,Single,0.0,Yes,Isolated,2.0,0.0,Program B,,No,3.0,3.0,5.0,2.0,3.0,4.0,3.0,3.0,4.0,5.0,1.0,2.0,2.0,5.0,10.0,0.0,0.0,0.0,0.0,3.0,0.0,4.0,6.0,2.0,5.0,6.0,3.0,5.0,6.0,6.0,3.0,4.0,2.0,5.0,4.0,4.0,6.0,6.0,2.0,6.0,5.0,6.0,2.0,5.0,6.0,5.0,2.0,4.0,6.0,2.0,99.0,6.0,5.0,1.0,99.0,2.0,99.0,5.0,5.0,6.0,6.0,4.0,1.0,1.0,5.0,1.0,4.0,2.0,4.0,2.0,6.0,4.0,,6.0,6.0,6.0,6.0,6.0,6.0,6.0,6.0,6.0,6.0,4.0,5.0,6.0,1.0,4.0,1.0,1.0,1.0,4.0,4.0,4.0,4.0,3.0,2.0,1.0,4.0,,4.0,6.0,6.0,4.0,4.0,5.0,"Ive had to make unavoidable life changes during this time, such as moving my primary home, from living with one group of roommates to another. This is giving me extreme anxiety but I have no other choice. Ive also lost all my income with little protection as a self-employed worker, so navigating multiple challenges at once is difficult.",3.7,1.666667,4.0,5.666667,5.666667,5.333333,4.666667,6.0
54780,1873,2020-04-03 17:15:27,EN,26,Female,"College degree, bachelor, master",College degree,Not employed,United States,no,Montana,Single,0.0,Yes,Isolated,1.0,0.0,,Program D,Yes,5.0,3.0,4.0,3.0,2.0,3.0,3.0,2.0,3.0,3.0,4.0,3.0,5.0,3.0,5.0,4.0,6.0,6.0,1.0,8.0,2.0,2.0,3.0,3.0,6.0,6.0,1.0,5.0,5.0,5.0,4.0,4.0,2.0,5.0,5.0,4.0,5.0,4.0,3.0,3.0,5.0,3.0,3.0,4.0,6.0,5.0,2.0,5.0,6.0,5.0,99.0,5.0,4.0,5.0,2.0,4.0,99.0,5.0,4.0,3.0,4.0,4.0,5.0,5.0,2.0,5.0,6.0,6.0,6.0,2.0,6.0,6.0,,5.0,5.0,4.0,5.0,5.0,5.0,5.0,5.0,5.0,5.0,4.0,5.0,5.0,3.0,5.0,2.0,2.0,2.0,2.0,4.0,2.0,2.0,2.0,4.0,2.0,3.0,,3.0,4.0,5.0,5.0,5.0,4.0,,3.5,4.0,4.333333,4.333333,3.666667,4.666667,5.0,4.9
54833,1553,2020-04-03 16:55:11,EN,46,Female,"College degree, bachelor, master",Up to 6 years of school,Not employed,United States,no,Texas,Married/cohabiting,2.0,Yes,Isolated,1.0,2.0,,Program D,No,3.0,3.0,2.0,5.0,2.0,2.0,5.0,4.0,3.0,2.0,3.0,1.0,3.0,4.0,6.0,5.0,7.0,7.0,3.0,8.0,5.0,4.0,5.0,5.0,6.0,6.0,3.0,6.0,5.0,5.0,4.0,5.0,2.0,4.0,3.0,5.0,5.0,3.0,6.0,6.0,4.0,4.0,1.0,4.0,6.0,6.0,2.0,6.0,4.0,5.0,2.0,5.0,3.0,2.0,1.0,1.0,1.0,6.0,3.0,3.0,4.0,6.0,6.0,4.0,4.0,4.0,5.0,1.0,5.0,1.0,6.0,5.0,,6.0,5.0,5.0,6.0,6.0,6.0,6.0,6.0,5.0,6.0,4.0,5.0,5.0,2.0,2.0,1.0,2.0,1.0,2.0,4.0,2.0,2.0,5.0,5.0,3.0,3.0,,4.0,6.0,6.0,6.0,1.0,2.0,,2.3,2.333333,3.0,3.0,4.666667,5.333333,5.666667,5.7
54840,1569,2020-04-03 16:53:52,SME,55,Female,PhD/Doctorate,College degree,Full time employed,United States,yes,Texas,Divorced/widowed,2.0,Not sure,Isolated,0.0,2.0,,Program C,No,1.0,1.0,3.0,5.0,5.0,1.0,5.0,4.0,1.0,1.0,1.0,1.0,1.0,9.0,10.0,0.0,7.0,,8.0,8.0,,5.0,5.0,5.0,5.0,5.0,0.0,5.0,6.0,6.0,1.0,5.0,3.0,4.0,2.0,5.0,5.0,5.0,6.0,6.0,6.0,6.0,4.0,5.0,6.0,6.0,1.0,6.0,1.0,1.0,1.0,1.0,1.0,1.0,1.0,1.0,1.0,3.0,1.0,5.0,6.0,1.0,1.0,1.0,1.0,1.0,1.0,1.0,3.0,1.0,1.0,1.0,,5.0,5.0,5.0,5.0,5.0,5.0,5.0,5.0,5.0,5.0,5.0,1.0,6.0,1.0,5.0,5.0,1.0,1.0,6.0,6.0,5.0,4.0,6.0,5.0,5.0,6.0,,5.0,5.0,5.0,5.0,3.0,3.0,"Soy una persona muy afortunada dedicada a la docencia. Desde que se declaró la emergencia trabajo desde casa en línea, hago todas mis compras por Internet. Evito salir al máximo. Sin embargo, tengo miedo.  Un colega ha muerto hace dos días por complicaciones del Covid 19. Me angustia estar frente a un enemigo invisible.Luego trato de no pensar en ello, distrayéndome haciendo tareas, trabajando o viendo programas que no se relacionen con el tema.",1.3,1.0,2.666667,3.666667,6.0,4.666667,6.0,5.0
54872,967,2020-04-03 16:38:28,BS,21,Female,"Some College, short continuing education or equivalent",College degree,Student,United States,yes,,Single,0.0,No,Isolated,2.0,0.0,Program A,,No,2.0,2.0,2.0,4.0,3.0,1.0,4.0,4.0,2.0,2.0,3.0,3.0,3.0,2.0,7.0,3.0,3.0,3.0,5.0,7.0,8.0,3.0,5.0,4.0,5.0,5.0,5.0,6.0,6.0,4.0,2.0,4.0,1.0,4.0,2.0,5.0,4.0,4.0,3.0,4.0,4.0,4.0,2.0,5.0,5.0,6.0,1.0,6.0,3.0,3.0,99.0,4.0,3.0,3.0,99.0,4.0,99.0,5.0,5.0,5.0,5.0,6.0,99.0,2.0,1.0,4.0,3.0,4.0,2.0,1.0,5.0,2.0,Lo,5.0,5.0,5.0,4.0,5.0,5.0,5.0,4.0,5.0,5.0,4.0,4.0,6.0,3.0,5.0,6.0,5.0,4.0,6.0,4.0,5.0,5.0,5.0,5.0,2.0,4.0,,5.0,5.0,5.0,5.0,5.0,4.0,U ivotu sam se nosila s puno situacija gdje sam se morala adaptirati na novo ivotno okruenje i mislim da mi to pomae da se nosim s ovom situacijom. Sve vjetine koje sam naucila tada mi pomau i sada.,2.0,3.0,2.666667,4.0,4.0,5.0,6.0,4.8
54929,1968,2020-04-03 16:39:50,EN,71,Female,"College degree, bachelor, master",Up to 12 years of school,Self-employed,United States,no,Pennsylvania,Divorced/widowed,0.0,Yes,Life carries on with minor changes,,,,Program C,No,4.0,3.0,5.0,4.0,3.0,4.0,4.0,2.0,5.0,4.0,4.0,2.0,3.0,5.0,7.0,1.0,2.0,4.0,5.0,7.0,1.0,6.0,6.0,6.0,6.0,6.0,0.0,6.0,6.0,6.0,1.0,1.0,6.0,4.0,6.0,3.0,2.0,2.0,5.0,5.0,6.0,5.0,4.0,4.0,4.0,5.0,2.0,4.0,5.0,4.0,99.0,5.0,6.0,6.0,1.0,99.0,99.0,5.0,99.0,6.0,6.0,5.0,4.0,6.0,2.0,4.0,1.0,6.0,6.0,5.0,6.0,2.0,"so many ignorant people not taking this seriously, believing inaccurate information, and/or not caring",6.0,6.0,6.0,6.0,6.0,6.0,6.0,6.0,6.0,6.0,2.0,1.0,4.0,1.0,4.0,4.0,2.0,2.0,4.0,4.0,5.0,2.0,6.0,5.0,1.0,3.0,"spending hours and hours researching COVID-19: disinfectants, masks, research, current and accurate news/medical experts. Doing repeat self-disinfection and finding disinfectant supplies",2.0,5.0,5.0,5.0,,,"Shameful, distressing, self-serving US president and GOP lies, disinformation, disregard for human life are deplorable, sickening, infuriating. Positives are smart, concerned state officials taking charge, doing the right things despite federal gov. obstacles. And smart, dedicated media who are holding US officials' feet to the fire and who are demanding accurate information.Plus dedicated medical professionals, civil servants, volunteers who are doing their best under appallingly, unimaginable difficult conditions.",3.6,3.0,4.666667,2.0,5.333333,3.666667,4.666667,6.0
54933,4152,2020-04-03 17:14:30,EN,72,Female,"College degree, bachelor, master",College degree,Retired,United States,no,California,Single,0.0,Yes,Isolated,2.0,0.0,,Program D,No,2.0,2.0,1.0,5.0,4.0,2.0,5.0,5.0,1.0,2.0,1.0,1.0,1.0,7.0,10.0,2.0,7.0,5.0,2.0,7.0,1.0,6.0,6.0,6.0,6.0,6.0,0.0,6.0,6.0,6.0,2.0,6.0,4.0,2.0,1.0,6.0,2.0,2.0,5.0,6.0,6.0,5.0,1.0,6.0,6.0,4.0,3.0,6.0,6.0,99.0,99.0,99.0,3.0,3.0,1.0,1.0,99.0,6.0,1.0,6.0,6.0,4.0,1.0,2.0,99.0,1.0,1.0,1.0,4.0,1.0,2.0,99.0,,6.0,6.0,6.0,6.0,6.0,6.0,4.0,6.0,6.0,5.0,1.0,4.0,6.0,4.0,6.0,5.0,4.0,,5.0,6.0,4.0,,6.0,4.0,6.0,2.0,,5.0,5.0,5.0,3.0,5.0,5.0,"I am high risk senior, who chose to isolate Feb 27th. I will choose to remain isolated until there is a vaccine.   I have lost significant monthly income due to loss of rents from tenants who have lost their jobs. I was pro active and sent out letters when I first heard there were layoffs, and confirmed tenants status. I still have mortgage, insurance, property taxes, maintenance etc. Some tenants have agreed to 50%. I am still short but that is the reality of now.   I have a health issue requiring a prescription which has expired. My dr retired. I have not seen new dr. The practice insisted I come in to the doctors office so I can get updated prescription. I cannot expose myself to anything. They are only doing COVID-19 online/Skype calls, none for patients who have not been seen. I have no albuterol for nebulizer and lung condition. If I catch COVID-19, I will not receive services and will die. I have had a great life. I would like to stay a bit longer as I do offer value to my community. I know I must extend my isolation to when there is a vaccine. No sooner. I am optimistic my answers would be the same<U+0001F970> Survivor skills: I meditate, I chant Sanskrit Kirtan, overtone, & Bon chants. I have a strong connection with non ordinary reality. Ive had a near death experience. I believe in the cycle of life and the consciousness lives on taking another form.",1.5,1.0,1.333333,2.0,5.666667,6.0,4.666667,5.7
54947,107,2020-04-04 16:03:40,EN,42,Female,"Some College, short continuing education or equivalent",Up to 12 years of school,Self-employed,United States,no,California,Married/cohabiting,4.0,No,Isolated,1.0,4.0,,,,,,,,,,,,,,,,,,,,,,,,,,,,,,,,,,,,,,,,,,,,,,,,,,,,,,,,,,,,,,,,,,,,,,,,,,,,,,,,,,,,,,,,,,,,,,,,,,,,,,,,,,,,,,,,,,,,,,
55036,356,2020-04-04 15:46:41,EN,75,Female,"College degree, bachelor, master",Some College or equivalent,Retired,United States,no,California,Divorced/widowed,1.0,Yes,Isolated,1.0,0.0,Program A,,No,4.0,3.0,4.0,4.0,3.0,3.0,4.0,3.0,4.0,4.0,2.0,4.0,4.0,6.0,8.0,6.0,8.0,7.0,8.0,5.0,7.0,4.0,4.0,4.0,4.0,4.0,5.0,5.0,5.0,5.0,3.0,3.0,3.0,4.0,4.0,4.0,3.0,3.0,5.0,3.0,4.0,3.0,2.0,4.0,5.0,4.0,4.0,5.0,,,,,,,,,,,,,,,,,,,,,,,,,,,,,,,,,,,,,,,,,,,,,,,,,,,,,,,,,,,,3.2,3.333333,3.666667,2.666667,3.333333,4.666667,4.0,
55043,300,2020-04-04 15:44:32,EN,49,Female,"College degree, bachelor, master",Some College or equivalent,Full time employed,United States,no,NY,Married/cohabiting,0.0,Yes,Isolated,1.0,0.0,,Program D,No,2.0,3.0,3.0,3.0,2.0,1.0,3.0,3.0,2.0,1.0,1.0,1.0,3.0,,,,,,,,,,,,,,,,,,,,,,,,,,,,,,,,,,,,,,,,,,,,,,,,,,,,,,,,,,,,,,,,,,,,,,,,,,,,,,,,,,,,,,,,,,,,,,,2.5,1.666667,,,,,,
55091,714,2020-04-03 15:40:33,EN,42,Female,"College degree, bachelor, master",Up to 9 years of school,Full time employed,United States,no,PA,Divorced/widowed,0.0,Not sure,Isolated,0.0,0.0,Program A,,No,3.0,4.0,5.0,2.0,3.0,4.0,3.0,3.0,5.0,3.0,5.0,5.0,5.0,7.0,9.0,2.0,1.0,2.0,0.0,4.0,0.0,6.0,6.0,6.0,6.0,6.0,0.0,5.0,5.0,5.0,1.0,2.0,1.0,5.0,5.0,4.0,5.0,6.0,2.0,6.0,6.0,6.0,4.0,6.0,5.0,2.0,4.0,5.0,6.0,6.0,99.0,6.0,6.0,6.0,99.0,99.0,99.0,6.0,99.0,6.0,6.0,6.0,6.0,6.0,2.0,6.0,6.0,99.0,2.0,2.0,6.0,2.0,,4.0,5.0,4.0,5.0,5.0,4.0,5.0,4.0,5.0,4.0,2.0,5.0,5.0,5.0,6.0,5.0,1.0,2.0,5.0,4.0,2.0,5.0,2.0,5.0,1.0,2.0,,5.0,5.0,2.0,5.0,6.0,2.0,,3.7,5.0,4.333333,5.333333,6.0,4.666667,3.333333,4.5
55136,595,2020-04-04 15:28:06,EN,64,Female,"College degree, bachelor, master",Up to 12 years of school,Full time employed,United States,no,California,Divorced/widowed,1.0,Yes,Life carries on with minor changes,0.0,0.0,Program B,,No,4.0,4.0,4.0,3.0,4.0,4.0,3.0,4.0,3.0,5.0,4.0,5.0,5.0,3.0,7.0,2.0,7.0,8.0,0.0,6.0,1.0,6.0,5.0,5.0,6.0,6.0,0.0,6.0,6.0,5.0,1.0,2.0,2.0,4.0,4.0,5.0,2.0,2.0,5.0,6.0,5.0,6.0,5.0,6.0,5.0,5.0,2.0,5.0,6.0,5.0,,6.0,5.0,,1.0,,99.0,6.0,5.0,6.0,6.0,5.0,,1.0,2.0,5.0,2.0,,1.0,1.0,6.0,6.0,,,,,,,,,,,,,,,,,,,,,,,,,,,,,,,,,,,,3.4,4.666667,3.333333,2.0,5.666667,4.333333,5.0,
55150,920,2020-04-03 15:30:54,EN,32,Male,"College degree, bachelor, master",Some College or equivalent,Self-employed,United States,no,California,Married/cohabiting,0.0,No,Isolated,0.0,0.0,,Program C,No,2.0,2.0,4.0,3.0,3.0,2.0,5.0,4.0,3.0,2.0,2.0,3.0,4.0,6.0,7.0,2.0,2.0,2.0,3.0,5.0,2.0,5.0,5.0,5.0,5.0,5.0,0.0,3.0,4.0,5.0,3.0,2.0,5.0,4.0,3.0,5.0,5.0,4.0,3.0,5.0,5.0,5.0,3.0,5.0,5.0,3.0,3.0,6.0,6.0,6.0,99.0,6.0,4.0,5.0,2.0,2.0,99.0,6.0,4.0,5.0,6.0,5.0,3.0,3.0,5.0,3.0,4.0,5.0,4.0,4.0,6.0,4.0,,5.0,5.0,3.0,5.0,5.0,5.0,5.0,5.0,5.0,5.0,3.0,2.0,3.0,3.0,3.0,3.0,5.0,5.0,4.0,3.0,2.0,4.0,3.0,6.0,3.0,3.0,,5.0,3.0,4.0,3.0,5.0,2.0,,2.4,3.0,3.0,4.333333,5.0,4.666667,4.333333,4.8
55168,891,2020-04-03 15:28:10,EN,46,Female,"College degree, bachelor, master",College degree,Not employed,United States,yes,California,Married/cohabiting,2.0,No,Isolated,1.0,0.0,Program B,,No,3.0,2.0,3.0,5.0,4.0,1.0,4.0,4.0,2.0,1.0,5.0,2.0,5.0,7.0,9.0,2.0,6.0,7.0,6.0,8.0,2.0,5.0,5.0,5.0,6.0,6.0,2.0,5.0,5.0,5.0,3.0,3.0,3.0,4.0,2.0,4.0,5.0,5.0,2.0,4.0,5.0,4.0,3.0,5.0,6.0,5.0,2.0,5.0,2.0,2.0,5.0,2.0,2.0,5.0,1.0,2.0,99.0,5.0,4.0,4.0,4.0,4.0,1.0,3.0,2.0,4.0,2.0,4.0,3.0,2.0,5.0,6.0,,6.0,6.0,6.0,6.0,6.0,6.0,6.0,6.0,6.0,6.0,3.0,5.0,5.0,3.0,5.0,5.0,1.0,1.0,6.0,5.0,2.0,4.0,2.0,4.0,1.0,4.0,,2.0,4.0,5.0,4.0,4.0,4.0,,1.9,4.0,3.0,5.0,4.333333,5.0,5.0,6.0
55436,914,2020-04-03 14:39:05,EN,69,Female,"Some College, short continuing education or equivalent",Up to 12 years of school,Retired,United States,no,California,Divorced/widowed,0.0,No,Life carries on with minor changes,0.0,0.0,,Program D,No,4.0,3.0,5.0,3.0,3.0,3.0,3.0,2.0,2.0,3.0,3.0,2.0,5.0,5.0,6.0,10.0,10.0,10.0,9.0,10.0,10.0,5.0,5.0,5.0,6.0,6.0,5.0,5.0,4.0,5.0,2.0,2.0,5.0,6.0,6.0,3.0,2.0,3.0,3.0,4.0,1.0,5.0,4.0,3.0,4.0,5.0,2.0,5.0,99.0,5.0,99.0,99.0,6.0,4.0,2.0,99.0,99.0,4.0,4.0,4.0,5.0,5.0,99.0,2.0,4.0,3.0,4.0,2.0,4.0,4.0,6.0,99.0,,6.0,4.0,5.0,5.0,5.0,5.0,5.0,4.0,5.0,5.0,2.0,2.0,5.0,4.0,1.0,5.0,4.0,1.0,5.0,4.0,2.0,3.0,1.0,2.0,1.0,4.0,,1.0,1.0,1.0,3.0,4.0,1.0,,3.3,3.333333,5.333333,3.0,3.333333,3.333333,5.0,4.9
55503,1376,2020-04-03 14:37:28,EN,70,Female,"College degree, bachelor, master",Some College or equivalent,Retired,United States,no,Georgiz,Married/cohabiting,0.0,Yes,Life carries on with minor changes,1.0,0.0,Program A,,No,2.0,2.0,2.0,5.0,5.0,2.0,5.0,4.0,1.0,2.0,1.0,2.0,3.0,7.0,10.0,5.0,6.0,7.0,7.0,8.0,3.0,5.0,5.0,5.0,5.0,5.0,3.0,4.0,5.0,5.0,2.0,3.0,2.0,5.0,2.0,5.0,5.0,3.0,4.0,3.0,4.0,4.0,4.0,6.0,5.0,5.0,2.0,5.0,99.0,99.0,99.0,99.0,4.0,4.0,6.0,2.0,99.0,5.0,4.0,5.0,4.0,5.0,99.0,3.0,2.0,2.0,3.0,5.0,5.0,4.0,4.0,99.0,People disregarding the severity of the situation.,5.0,5.0,5.0,5.0,5.0,5.0,5.0,6.0,5.0,5.0,2.0,5.0,6.0,2.0,4.0,4.0,1.0,1.0,5.0,4.0,3.0,5.0,4.0,5.0,6.0,3.0,,4.0,5.0,2.0,4.0,4.0,3.0,Read info from reliable institutions such as the CDC.,1.6,2.0,3.0,3.666667,3.666667,4.666667,5.0,5.1
55542,504,2020-04-03 14:17:56,EN,43,Female,PhD/Doctorate,College degree,Full time employed,United States,no,Colorado,Married/cohabiting,2.0,Yes,Isolated,1.0,2.0,,Program D,Yes,2.0,2.0,4.0,4.0,3.0,4.0,3.0,2.0,2.0,3.0,2.0,2.0,4.0,6.0,9.0,3.0,4.0,5.0,5.0,6.0,1.0,5.0,5.0,5.0,6.0,6.0,1.0,5.0,5.0,6.0,2.0,4.0,4.0,5.0,4.0,5.0,5.0,4.0,3.0,5.0,6.0,5.0,2.0,5.0,5.0,4.0,3.0,4.0,3.0,4.0,4.0,4.0,4.0,4.0,2.0,1.0,2.0,6.0,4.0,6.0,6.0,6.0,4.0,4.0,2.0,3.0,4.0,2.0,4.0,3.0,4.0,1.0,,5.0,5.0,4.0,6.0,6.0,5.0,5.0,6.0,4.0,5.0,3.0,6.0,5.0,3.0,5.0,4.0,1.0,1.0,5.0,4.0,4.0,3.0,4.0,4.0,2.0,2.0,,4.0,4.0,4.0,4.0,5.0,4.0,,2.9,2.666667,3.666667,4.333333,5.333333,5.0,4.0,5.1
55602,871,2020-04-03 14:16:46,EN,25,Female,"College degree, bachelor, master",College degree,Student,United States,no,Colorado,Single,0.0,Yes,Isolated,0.0,0.0,,Program C,No,3.0,4.0,5.0,3.0,2.0,4.0,3.0,2.0,4.0,4.0,3.0,3.0,5.0,5.0,8.0,2.0,2.0,4.0,1.0,9.0,1.0,4.0,5.0,6.0,6.0,6.0,1.0,6.0,6.0,6.0,5.0,3.0,4.0,6.0,6.0,3.0,5.0,4.0,4.0,4.0,5.0,3.0,3.0,6.0,5.0,6.0,4.0,5.0,2.0,6.0,99.0,6.0,5.0,4.0,99.0,99.0,99.0,5.0,5.0,5.0,5.0,5.0,2.0,4.0,6.0,5.0,5.0,6.0,2.0,1.0,6.0,1.0,,5.0,5.0,6.0,5.0,6.0,5.0,6.0,6.0,5.0,4.0,4.0,2.0,6.0,2.0,6.0,4.0,4.0,5.0,4.0,5.0,5.0,6.0,5.0,5.0,1.0,5.0,,6.0,6.0,5.0,4.0,6.0,2.0,,3.8,3.666667,5.333333,4.0,4.0,5.0,4.666667,5.3
55641,511,2020-04-04 14:04:06,EN,45,Female,"College degree, bachelor, master",Up to 12 years of school,Self-employed,United States,no,CA,Married/cohabiting,5.0,No,Life carries on with minor changes,4.0,1.0,Program B,,No,2.0,2.0,3.0,5.0,3.0,1.0,2.0,4.0,3.0,1.0,1.0,2.0,1.0,5.0,8.0,3.0,4.0,1.0,2.0,1.0,2.0,5.0,5.0,5.0,6.0,6.0,3.0,5.0,2.0,2.0,5.0,2.0,4.0,,,,,,,,,,,,,,,,,,,,,,,,,,,,,,,,,,,,,,,,,,,,,,,,,,,,,,,,,,,,,,,,,,,,,,,,,,,2.2,1.333333,,,,,,
55643,1372,2020-04-03 14:18:16,EN,31,Other/would rather not say,"College degree, bachelor, master",Some College or equivalent,Part time employed,United States,no,California,Single,0.0,Yes,Isolated,1.0,0.0,Program A,,Yes,4.0,3.0,5.0,3.0,2.0,3.0,2.0,3.0,4.0,4.0,3.0,2.0,2.0,4.0,6.0,7.0,5.0,9.0,8.0,10.0,2.0,2.0,6.0,6.0,6.0,6.0,0.0,6.0,6.0,5.0,1.0,4.0,4.0,5.0,4.0,6.0,4.0,1.0,5.0,5.0,6.0,6.0,5.0,1.0,4.0,6.0,4.0,5.0,6.0,5.0,99.0,5.0,6.0,1.0,99.0,1.0,99.0,5.0,5.0,6.0,6.0,6.0,1.0,1.0,4.0,3.0,1.0,2.0,5.0,1.0,4.0,2.0,,4.0,5.0,6.0,4.0,4.0,5.0,4.0,4.0,4.0,5.0,2.0,4.0,5.0,1.0,5.0,5.0,5.0,3.0,4.0,4.0,6.0,4.0,3.0,4.0,1.0,4.0,,4.0,6.0,6.0,4.0,6.0,5.0,,3.7,2.333333,3.333333,2.333333,5.666667,2.333333,4.666667,4.5
55733,827,2020-04-03 13:59:00,EN,45,Female,PhD/Doctorate,Up to 12 years of school,Self-employed,United States,no,California,Married/cohabiting,2.0,No,Isolated,2.0,1.0,Program A,,No,3.0,3.0,5.0,5.0,3.0,1.0,4.0,3.0,2.0,4.0,1.0,1.0,3.0,7.0,9.0,5.0,8.0,8.0,4.0,7.0,7.0,6.0,6.0,6.0,6.0,5.0,4.0,5.0,6.0,6.0,5.0,5.0,4.0,5.0,2.0,6.0,5.0,1.0,5.0,4.0,5.0,4.0,4.0,4.0,3.0,6.0,2.0,6.0,6.0,6.0,2.0,6.0,2.0,2.0,1.0,2.0,2.0,5.0,2.0,2.0,2.0,4.0,99.0,1.0,2.0,2.0,1.0,1.0,4.0,2.0,6.0,2.0,Myself and spouse both out of work since work in dental office and at high risk without proper PPE. Concerned about ability to reopen business.,5.0,5.0,5.0,6.0,6.0,6.0,6.0,6.0,6.0,5.0,2.0,1.0,5.0,2.0,5.0,4.0,2.0,1.0,5.0,5.0,4.0,4.0,1.0,4.0,1.0,2.0,,2.0,4.0,1.0,1.0,2.0,2.0,,2.7,1.666667,2.666667,2.666667,4.333333,3.333333,5.666667,5.6
55853,499,2020-04-04 13:40:26,EN,18,Female,"Some College, short continuing education or equivalent",Some College or equivalent,Student,United States,no,Wa,Single,0.0,No,Isolated,4.0,,,Program D,No,3.0,5.0,5.0,3.0,3.0,3.0,3.0,3.0,4.0,4.0,4.0,3.0,5.0,6.0,5.0,2.0,3.0,3.0,2.0,2.0,1.0,5.0,5.0,5.0,5.0,6.0,1.0,3.0,5.0,5.0,3.0,2.0,4.0,4.0,4.0,4.0,5.0,4.0,4.0,3.0,4.0,4.0,4.0,4.0,4.0,4.0,4.0,5.0,3.0,3.0,4.0,3.0,4.0,4.0,3.0,2.0,5.0,5.0,2.0,5.0,4.0,5.0,5.0,5.0,4.0,5.0,4.0,5.0,3.0,4.0,5.0,4.0,,,,,,,,,,,,,,,,,,,,,,,,,,,,,,,,,,,,3.6,4.0,3.666667,4.0,3.666667,3.666667,4.0,
55949,1148,2020-04-03 13:35:40,EN,73,Female,"Some College, short continuing education or equivalent",Some College or equivalent,Retired,United States,no,,Single,0.0,Yes,Life carries on with minor changes,1.0,0.0,,,,1.0,1.0,1.0,5.0,5.0,1.0,5.0,5.0,1.0,1.0,1.0,1.0,1.0,5.0,9.0,4.0,7.0,4.0,7.0,7.0,4.0,5.0,5.0,5.0,5.0,5.0,4.0,6.0,6.0,5.0,1.0,4.0,3.0,2.0,1.0,5.0,4.0,5.0,2.0,5.0,6.0,5.0,2.0,5.0,6.0,5.0,1.0,5.0,4.0,1.0,99.0,1.0,4.0,2.0,1.0,1.0,99.0,4.0,3.0,3.0,2.0,3.0,99.0,1.0,1.0,1.0,1.0,1.0,3.0,1.0,2.0,1.0,,6.0,5.0,5.0,6.0,6.0,6.0,6.0,6.0,5.0,6.0,3.0,5.0,4.0,4.0,3.0,4.0,1.0,1.0,4.0,3.0,4.0,4.0,2.0,5.0,3.0,3.0,,5.0,4.0,4.0,4.0,5.0,5.0,"What has generally changed, is my joyful awareness of how close knit and helpful my community is now.",1.0,1.0,1.666667,4.666667,5.333333,5.333333,5.333333,5.7
55962,490,2020-04-03 13:22:15,FI,44,Male,"Some College, short continuing education or equivalent",Up to 9 years of school,Full time employed,United States,yes,Kalifornia,Married/cohabiting,0.0,No,Isolated,1.0,0.0,,Program C,No,2.0,3.0,3.0,4.0,4.0,2.0,4.0,3.0,3.0,3.0,4.0,2.0,3.0,8.0,9.0,6.0,6.0,5.0,2.0,8.0,2.0,4.0,4.0,5.0,6.0,6.0,1.0,5.0,5.0,5.0,1.0,4.0,4.0,3.0,2.0,5.0,4.0,3.0,5.0,4.0,6.0,5.0,2.0,6.0,5.0,4.0,4.0,4.0,3.0,4.0,99.0,6.0,4.0,5.0,1.0,2.0,99.0,6.0,5.0,4.0,4.0,6.0,2.0,2.0,2.0,2.0,4.0,2.0,2.0,1.0,4.0,6.0,,6.0,6.0,4.0,6.0,6.0,5.0,5.0,6.0,4.0,6.0,2.0,5.0,4.0,5.0,5.0,5.0,2.0,3.0,4.0,4.0,4.0,5.0,4.0,5.0,1.0,3.0,,4.0,5.0,6.0,5.0,3.0,1.0,,2.5,3.0,2.333333,3.0,5.0,5.333333,3.666667,5.4
56038,741,2020-04-03 13:18:37,EN,47,Female,"College degree, bachelor, master",College degree,Part time employed,United States,no,California,Married/cohabiting,1.0,Yes,Isolated,1.0,1.0,Program B,,No,3.0,3.0,4.0,4.0,4.0,3.0,3.0,3.0,3.0,3.0,3.0,3.0,4.0,7.0,7.0,5.0,7.0,9.0,6.0,10.0,3.0,6.0,6.0,6.0,5.0,5.0,0.0,6.0,6.0,6.0,2.0,2.0,5.0,6.0,5.0,3.0,4.0,2.0,6.0,4.0,5.0,5.0,4.0,5.0,5.0,3.0,5.0,5.0,2.0,5.0,4.0,1.0,5.0,4.0,1.0,4.0,4.0,5.0,5.0,6.0,6.0,5.0,6.0,5.0,4.0,5.0,3.0,4.0,5.0,2.0,6.0,2.0,,6.0,5.0,5.0,6.0,5.0,5.0,6.0,6.0,5.0,6.0,5.0,1.0,5.0,5.0,6.0,4.0,1.0,4.0,6.0,3.0,6.0,6.0,6.0,3.0,1.0,4.0,,2.0,2.0,2.0,6.0,4.0,2.0,"Trying to work from home and homeschool at the same time, and being frustrated by people I know not staying home during shelter in place",2.9,3.333333,5.0,2.333333,4.666667,4.333333,3.333333,5.5
56068,1567,2020-04-03 13:28:02,EN,41,Female,"College degree, bachelor, master",College degree,Not employed,United States,yes,Washington State,Married/cohabiting,1.0,Yes,Isolated,1.0,1.0,,Program C,No,1.0,2.0,2.0,4.0,4.0,1.0,4.0,4.0,2.0,1.0,1.0,3.0,3.0,8.0,9.0,0.0,3.0,7.0,5.0,9.0,0.0,2.0,4.0,4.0,5.0,5.0,0.0,4.0,6.0,6.0,1.0,3.0,2.0,2.0,2.0,5.0,5.0,5.0,2.0,3.0,3.0,4.0,5.0,2.0,3.0,2.0,3.0,5.0,3.0,99.0,3.0,1.0,2.0,3.0,1.0,1.0,1.0,2.0,4.0,4.0,6.0,6.0,99.0,1.0,1.0,1.0,2.0,1.0,1.0,2.0,1.0,4.0,,6.0,6.0,4.0,5.0,6.0,6.0,6.0,6.0,5.0,6.0,3.0,3.0,4.0,1.0,4.0,5.0,1.0,1.0,2.0,5.0,2.0,2.0,1.0,3.0,1.0,5.0,,5.0,5.0,6.0,1.0,3.0,2.0,I am concerned about my minor child's developing relationships with her community of friends.,1.7,2.333333,2.0,5.0,3.333333,2.333333,3.666667,5.6
56075,672,2020-04-03 13:12:34,EN,18,Female,"Some College, short continuing education or equivalent",College degree,Self-employed,United States,no,Washington,Single,0.0,Yes,Isolated,2.0,1.0,Program B,,No,3.0,3.0,3.0,4.0,3.0,3.0,2.0,3.0,4.0,3.0,4.0,3.0,4.0,2.0,6.0,3.0,2.0,4.0,1.0,7.0,0.0,5.0,6.0,5.0,6.0,6.0,0.0,5.0,5.0,4.0,2.0,4.0,5.0,6.0,3.0,5.0,6.0,5.0,3.0,3.0,6.0,4.0,5.0,3.0,4.0,5.0,4.0,5.0,4.0,5.0,99.0,5.0,3.0,4.0,2.0,6.0,6.0,5.0,4.0,6.0,6.0,6.0,4.0,6.0,3.0,5.0,6.0,5.0,5.0,5.0,6.0,4.0,,5.0,4.0,4.0,4.0,5.0,4.0,5.0,5.0,4.0,5.0,4.0,4.0,5.0,4.0,4.0,5.0,3.0,3.0,5.0,4.0,4.0,4.0,5.0,4.0,2.0,4.0,,4.0,4.0,4.0,3.0,4.0,3.0,,3.1,3.666667,3.666667,5.0,4.333333,3.0,4.333333,4.5
56108,1502,2020-04-03 13:22:49,EN,70,Female,"Some College, short continuing education or equivalent",Up to 9 years of school,Retired,United States,no,Ohio,Married/cohabiting,0.0,Yes,Life carries on with minor changes,1.0,0.0,,,,3.0,2.0,2.0,5.0,4.0,2.0,5.0,5.0,2.0,2.0,1.0,2.0,2.0,7.0,10.0,5.0,7.0,7.0,9.0,7.0,7.0,5.0,5.0,5.0,5.0,5.0,7.0,6.0,3.0,6.0,3.0,4.0,6.0,6.0,4.0,5.0,6.0,6.0,2.0,5.0,6.0,4.0,1.0,6.0,6.0,6.0,1.0,6.0,99.0,99.0,99.0,2.0,3.0,4.0,5.0,2.0,99.0,4.0,1.0,2.0,3.0,4.0,2.0,4.0,2.0,2.0,4.0,6.0,2.0,1.0,1.0,2.0,Community,6.0,5.0,5.0,5.0,5.0,5.0,6.0,6.0,5.0,6.0,6.0,3.0,6.0,6.0,5.0,6.0,2.0,1.0,2.0,6.0,4.0,6.0,4.0,6.0,6.0,4.0,,5.0,5.0,6.0,5.0,6.0,6.0,Not being able to visit my elderly mother at an assisted living facility.,1.8,1.666667,4.0,5.666667,5.0,6.0,6.0,5.4
56117,1210,2020-04-03 13:17:02,EN,44,Female,"Some College, short continuing education or equivalent",College degree,Full time employed,United States,no,Washington,Married/cohabiting,6.0,Yes,Isolated,1.0,2.0,,Program C,Not sure,2.0,2.0,5.0,4.0,3.0,2.0,4.0,4.0,3.0,2.0,1.0,2.0,5.0,2.0,7.0,2.0,8.0,5.0,,,5.0,5.0,5.0,5.0,5.0,5.0,6.0,6.0,6.0,6.0,2.0,1.0,2.0,4.0,2.0,6.0,6.0,4.0,1.0,6.0,3.0,6.0,2.0,6.0,6.0,6.0,2.0,6.0,5.0,2.0,5.0,1.0,1.0,2.0,2.0,1.0,1.0,3.0,1.0,3.0,4.0,3.0,3.0,2.0,2.0,3.0,3.0,2.0,1.0,1.0,4.0,2.0,,6.0,4.0,3.0,6.0,6.0,6.0,6.0,6.0,6.0,6.0,6.0,4.0,6.0,5.0,5.0,5.0,1.0,1.0,5.0,6.0,6.0,6.0,6.0,6.0,5.0,6.0,,2.0,2.0,2.0,2.0,2.0,2.0,I feel like our political representatives need to not involve their political agenda into the coronavirus pandemic. Major bail outs etc... let  the people of America get what they need first before bailing out the Kennedy Center or pbs. Feed families and pay the less fortunate so they can get by.,2.5,2.666667,2.333333,5.333333,5.0,5.666667,5.666667,5.5
56141,535,2020-04-04 13:04:07,EN,56,Female,PhD/Doctorate,Some College or equivalent,Full time employed,United States,no,New York,Single,0.0,Yes,Isolated,0.0,0.0,Program A,,No,3.0,4.0,5.0,3.0,3.0,3.0,3.0,2.0,5.0,3.0,3.0,3.0,4.0,5.0,8.0,5.0,7.0,7.0,7.0,0.0,1.0,6.0,6.0,5.0,6.0,6.0,0.0,6.0,6.0,6.0,1.0,4.0,4.0,4.0,5.0,3.0,4.0,1.0,4.0,6.0,4.0,6.0,2.0,2.0,5.0,4.0,3.0,5.0,3.0,5.0,99.0,6.0,6.0,4.0,99.0,99.0,99.0,6.0,5.0,6.0,6.0,6.0,5.0,4.0,4.0,5.0,4.0,3.0,6.0,1.0,6.0,99.0,,,,,,,,,,,,,,,,,,,,,,,,,,,,,,,,,,,,3.6,3.333333,4.333333,2.666667,5.333333,4.0,4.333333,
56178,301,2020-04-04 12:57:02,EN,53,Female,"College degree, bachelor, master",Up to 12 years of school,Full time employed,United States,no,california,Single,2.0,Yes,Isolated,1.0,1.0,,Program D,,,,,,,,,,,,,,,,,,,,,,,,,,,,,,,,,,,,,,,,,,,,,,,,,,,,,,,,,,,,,,,,,,,,,,,,,,,,,,,,,,,,,,,,,,,,,,,,,,,,,,,,,,,,,,,,,,,,
56183,952,2020-04-04 13:06:24,EN,68,Female,"College degree, bachelor, master",Up to 12 years of school,Retired,United States,no,California,Divorced/widowed,0.0,Yes,Life carries on with minor changes,0.0,0.0,Program B,,No,2.0,2.0,3.0,5.0,4.0,2.0,4.0,4.0,3.0,1.0,3.0,2.0,2.0,7.0,10.0,4.0,8.0,7.0,8.0,9.0,3.0,4.0,5.0,5.0,6.0,6.0,3.0,6.0,,1.0,1.0,4.0,1.0,4.0,2.0,5.0,4.0,2.0,5.0,4.0,5.0,4.0,4.0,5.0,5.0,6.0,1.0,6.0,99.0,99.0,99.0,99.0,4.0,4.0,5.0,99.0,99.0,6.0,2.0,5.0,4.0,5.0,99.0,1.0,1.0,1.0,2.0,4.0,,1.0,2.0,1.0,,6.0,6.0,6.0,6.0,6.0,6.0,6.0,6.0,6.0,6.0,4.0,1.0,6.0,1.0,5.0,2.0,5.0,5.0,5.0,4.0,2.0,4.0,5.0,6.0,5.0,2.0,,6.0,6.0,6.0,5.0,6.0,1.0,,2.0,2.333333,2.666667,2.666667,4.333333,4.333333,6.0,6.0
56207,3187,2020-04-04 13:41:05,EN,31,Female,"College degree, bachelor, master",College degree,Full time employed,United States,no,Arizona,Married/cohabiting,0.0,Yes,Isolated,2.0,0.0,,Program D,No,3.0,2.0,4.0,4.0,4.0,2.0,4.0,4.0,3.0,2.0,3.0,2.0,3.0,7.0,9.0,5.0,6.0,8.0,2.0,8.0,2.0,1.0,5.0,4.0,6.0,5.0,0.0,5.0,5.0,5.0,1.0,3.0,4.0,6.0,4.0,4.0,3.0,2.0,5.0,3.0,4.0,2.0,3.0,5.0,5.0,4.0,4.0,5.0,1.0,4.0,1.0,1.0,2.0,3.0,1.0,2.0,1.0,2.0,3.0,3.0,5.0,4.0,4.0,2.0,3.0,4.0,4.0,2.0,1.0,1.0,4.0,2.0,,6.0,5.0,6.0,6.0,5.0,5.0,6.0,6.0,5.0,5.0,3.0,5.0,5.0,4.0,6.0,1.0,4.0,2.0,4.0,4.0,4.0,4.0,5.0,5.0,2.0,2.0,"I am unable to have face to face interactions due isolation, but the there was no n/a response option",4.0,5.0,4.0,3.0,4.0,3.0,,2.4,2.666667,4.333333,2.333333,3.0,4.666667,4.0,5.5
56226,689,2020-04-03 12:56:29,EN,43,Female,"College degree, bachelor, master",College degree,Full time employed,United States,no,Colorado,Married/cohabiting,0.0,Yes,Isolated,1.0,0.0,,Program D,No,3.0,4.0,5.0,5.0,3.0,2.0,4.0,3.0,3.0,2.0,1.0,1.0,5.0,2.0,7.0,0.0,7.0,5.0,5.0,2.0,0.0,6.0,6.0,6.0,6.0,6.0,0.0,5.0,6.0,5.0,2.0,2.0,5.0,,5.0,4.0,4.0,1.0,5.0,6.0,6.0,5.0,2.0,4.0,5.0,5.0,3.0,4.0,5.0,5.0,4.0,6.0,6.0,5.0,5.0,5.0,5.0,6.0,5.0,5.0,6.0,6.0,3.0,5.0,4.0,5.0,5.0,6.0,6.0,5.0,4.0,2.0,,6.0,5.0,5.0,6.0,5.0,5.0,6.0,6.0,5.0,5.0,2.0,6.0,6.0,5.0,5.0,2.0,2.0,4.0,5.0,4.0,5.0,1.0,4.0,6.0,4.0,3.0,,2.0,4.0,4.0,5.0,4.0,1.0,,2.8,2.333333,4.0,2.333333,5.666667,4.666667,4.333333,5.4
56277,550,2020-04-03 12:46:48,EN,28,Female,"College degree, bachelor, master",Some College or equivalent,Full time employed,United States,no,Florida,Married/cohabiting,0.0,Yes,Life carries on with minor changes,3.0,0.0,,Program D,No,4.0,4.0,5.0,3.0,3.0,3.0,4.0,3.0,5.0,2.0,2.0,3.0,3.0,5.0,9.0,1.0,6.0,7.0,2.0,9.0,0.0,4.0,6.0,6.0,6.0,6.0,0.0,5.0,5.0,6.0,4.0,3.0,2.0,5.0,4.0,4.0,5.0,5.0,2.0,3.0,6.0,5.0,3.0,5.0,6.0,5.0,2.0,5.0,3.0,4.0,99.0,3.0,3.0,3.0,99.0,6.0,99.0,6.0,4.0,6.0,6.0,6.0,2.0,3.0,6.0,4.0,4.0,4.0,2.0,3.0,4.0,2.0,,5.0,4.0,5.0,6.0,6.0,5.0,5.0,6.0,5.0,5.0,5.0,5.0,5.0,2.0,4.0,4.0,2.0,2.0,5.0,5.0,4.0,4.0,5.0,6.0,1.0,4.0,,4.0,5.0,4.0,2.0,2.0,1.0,,3.4,2.666667,4.0,5.0,4.666667,5.0,5.0,5.2
56408,2127,2020-04-04 12:58:27,EN,35,Female,"College degree, bachelor, master",Some College or equivalent,Student,United States,no,Ca,Married/cohabiting,2.0,Yes,Life carries on with minor changes,1.0,2.0,Program A,,Yes,3.0,3.0,4.0,4.0,3.0,3.0,3.0,4.0,2.0,2.0,2.0,4.0,3.0,4.0,7.0,5.0,7.0,7.0,2.0,9.0,2.0,4.0,5.0,5.0,5.0,5.0,0.0,5.0,2.0,3.0,2.0,2.0,2.0,5.0,5.0,4.0,2.0,1.0,5.0,3.0,4.0,3.0,4.0,4.0,4.0,4.0,4.0,5.0,4.0,2.0,5.0,3.0,2.0,2.0,1.0,2.0,5.0,1.0,2.0,5.0,4.0,5.0,5.0,2.0,2.0,5.0,3.0,4.0,5.0,2.0,4.0,2.0,,5.0,5.0,5.0,4.0,5.0,5.0,5.0,5.0,2.0,5.0,1.0,5.0,4.0,3.0,2.0,6.0,6.0,6.0,6.0,3.0,4.0,4.0,4.0,6.0,1.0,2.0,,1.0,4.0,4.0,2.0,4.0,3.0,,2.7,3.0,4.333333,1.666667,3.333333,3.666667,4.0,4.6
56484,1205,2020-04-03 12:33:27,EN,51,Female,"College degree, bachelor, master",College degree,Full time employed,United States,no,New York,Divorced/widowed,1.0,Yes,Isolated,2.0,0.0,Program A,,No,3.0,4.0,4.0,4.0,3.0,2.0,4.0,4.0,2.0,2.0,2.0,2.0,3.0,7.0,8.0,3.0,5.0,9.0,6.0,9.0,0.0,5.0,6.0,5.0,6.0,6.0,0.0,5.0,6.0,6.0,4.0,2.0,4.0,5.0,3.0,5.0,2.0,2.0,4.0,4.0,6.0,5.0,2.0,6.0,5.0,5.0,2.0,6.0,4.0,6.0,99.0,4.0,4.0,4.0,1.0,2.0,99.0,6.0,4.0,6.0,5.0,4.0,5.0,3.0,4.0,2.0,2.0,3.0,2.0,2.0,5.0,2.0,,5.0,5.0,5.0,5.0,5.0,5.0,5.0,5.0,5.0,5.0,4.0,5.0,4.0,4.0,5.0,4.0,2.0,2.0,2.0,3.0,5.0,4.0,5.0,5.0,5.0,5.0,,2.0,5.0,4.0,3.0,3.0,4.0,,2.6,2.333333,3.333333,2.333333,5.0,5.333333,5.333333,5.0
56548,1417,2020-04-03 12:30:11,EN,60,Female,Up to 12 years of school,Up to 12 years of school,Full time employed,United States,no,Michigan,Married/cohabiting,0.0,No,Life carries on with minor changes,2.0,0.0,,Program C,Not sure,3.0,3.0,4.0,3.0,3.0,3.0,3.0,1.0,3.0,3.0,3.0,3.0,3.0,6.0,10.0,3.0,3.0,3.0,4.0,4.0,3.0,5.0,5.0,5.0,5.0,5.0,3.0,4.0,5.0,4.0,4.0,3.0,3.0,5.0,4.0,4.0,5.0,4.0,5.0,4.0,4.0,4.0,4.0,5.0,5.0,4.0,2.0,4.0,4.0,99.0,99.0,4.0,4.0,5.0,4.0,4.0,99.0,6.0,4.0,5.0,5.0,5.0,99.0,4.0,4.0,4.0,4.0,4.0,5.0,99.0,5.0,4.0,Worried about having a job after this & paying my bills.,5.0,5.0,5.0,5.0,5.0,5.0,5.0,5.0,5.0,5.0,4.0,5.0,5.0,5.0,5.0,4.0,3.0,3.0,5.0,4.0,4.0,5.0,5.0,4.0,5.0,4.0,Thankful that I have a husband I can count on.,4.0,4.0,4.0,4.0,4.0,4.0,"Being laid off from my job, not knowing if I will have one after this is most scary. Being able to pay my own bills.",3.3,3.0,4.0,3.666667,4.0,4.333333,4.333333,5.0
56581,1789,2020-04-03 12:31:40,EN,45,Male,"College degree, bachelor, master",Some College or equivalent,Not employed,United States,no,California,Married/cohabiting,2.0,Yes,Isolated,1.0,0.0,,Program D,No,2.0,2.0,3.0,5.0,3.0,1.0,5.0,4.0,3.0,3.0,2.0,1.0,5.0,5.0,8.0,5.0,7.0,5.0,8.0,5.0,8.0,5.0,6.0,4.0,6.0,4.0,7.0,6.0,5.0,5.0,1.0,5.0,4.0,3.0,1.0,6.0,6.0,6.0,1.0,6.0,5.0,5.0,2.0,4.0,6.0,5.0,2.0,6.0,6.0,2.0,4.0,6.0,5.0,3.0,1.0,1.0,99.0,5.0,5.0,5.0,5.0,4.0,1.0,1.0,1.0,2.0,4.0,1.0,4.0,1.0,4.0,1.0,,6.0,6.0,6.0,6.0,6.0,6.0,6.0,6.0,6.0,6.0,5.0,4.0,5.0,4.0,5.0,5.0,6.0,6.0,5.0,6.0,4.0,5.0,5.0,6.0,5.0,5.0,,3.0,2.0,1.0,2.0,2.0,5.0,We are not happy that we are releasing criminals from incarceration.  I am very concerned about upcoming job applications and how they will do interviews etc.,2.1,2.666667,1.666667,6.0,5.333333,5.0,5.333333,6.0
56777,720,2020-04-03 11:49:54,EN,32,Female,"College degree, bachelor, master",College degree,Student,United States,yes,,Single,0.0,Yes,Isolated,1.0,1.0,Program A,,No,4.0,3.0,3.0,3.0,1.0,3.0,3.0,2.0,3.0,3.0,3.0,4.0,4.0,7.0,8.0,2.0,7.0,5.0,7.0,9.0,2.0,2.0,6.0,2.0,4.0,6.0,2.0,6.0,5.0,6.0,6.0,4.0,5.0,4.0,4.0,4.0,5.0,2.0,4.0,5.0,5.0,4.0,2.0,4.0,5.0,4.0,4.0,4.0,6.0,3.0,1.0,6.0,3.0,4.0,5.0,5.0,4.0,4.0,2.0,4.0,6.0,6.0,5.0,5.0,4.0,5.0,3.0,4.0,5.0,2.0,6.0,6.0,,4.0,3.0,4.0,4.0,4.0,4.0,4.0,3.0,4.0,4.0,3.0,2.0,6.0,2.0,4.0,4.0,2.0,2.0,4.0,3.0,3.0,3.0,5.0,2.0,6.0,3.0,,2.0,6.0,6.0,6.0,6.0,5.0,,3.4,3.666667,3.666667,3.333333,4.666667,4.666667,3.666667,3.8
56863,1239,2020-04-03 11:46:21,EN,26,Other/would rather not say,"Some College, short continuing education or equivalent",College degree,Not employed,United States,no,New York,Single,0.0,Yes,Isolated,2.0,0.0,,Program C,No,5.0,5.0,5.0,2.0,1.0,3.0,3.0,2.0,5.0,5.0,4.0,1.0,3.0,3.0,7.0,1.0,0.0,5.0,1.0,9.0,1.0,6.0,6.0,6.0,5.0,5.0,0.0,5.0,5.0,6.0,2.0,2.0,2.0,6.0,6.0,2.0,2.0,2.0,5.0,4.0,6.0,3.0,4.0,4.0,6.0,4.0,4.0,5.0,6.0,99.0,99.0,5.0,4.0,5.0,5.0,4.0,99.0,2.0,2.0,6.0,6.0,6.0,99.0,2.0,2.0,4.0,3.0,2.0,4.0,2.0,6.0,5.0,,5.0,1.0,3.0,5.0,6.0,2.0,4.0,5.0,5.0,5.0,5.0,1.0,6.0,1.0,1.0,2.0,6.0,5.0,5.0,1.0,2.0,5.0,2.0,6.0,3.0,1.0,,4.0,4.0,4.0,4.0,4.0,3.0,"I lost my job because I have asthma and couldnt interact with the public| applying for unemployment for a state I just moved away from is complicated by the fact that EVERYONE is filing for unemployment. I cant afford my health insurance anymore because Im unemployed, and am having a hard time applying through the NY marketplace. Everything is uncertain purely because nobody has money anymore",4.4,2.666667,5.666667,2.0,4.333333,4.333333,4.0,4.1
56869,597,2020-04-03 11:35:07,EN,38,Other/would rather not say,"College degree, bachelor, master",College degree,Full time employed,United States,no,Oregon,Single,1.0,Yes,Life carries on with minor changes,0.0,1.0,,Program D,Not sure,3.0,3.0,4.0,3.0,2.0,2.0,4.0,4.0,2.0,3.0,4.0,4.0,4.0,1.0,7.0,2.0,1.0,3.0,3.0,8.0,0.0,6.0,6.0,6.0,6.0,6.0,1.0,6.0,5.0,6.0,2.0,3.0,3.0,4.0,4.0,4.0,2.0,2.0,4.0,5.0,6.0,5.0,3.0,5.0,5.0,5.0,4.0,5.0,4.0,4.0,5.0,4.0,4.0,4.0,99.0,99.0,3.0,4.0,4.0,6.0,5.0,5.0,1.0,99.0,4.0,6.0,3.0,6.0,4.0,2.0,4.0,99.0,,4.0,5.0,4.0,4.0,4.0,4.0,4.0,3.0,4.0,4.0,3.0,2.0,4.0,2.0,4.0,3.0,2.0,2.0,4.0,5.0,4.0,3.0,4.0,4.0,1.0,3.0,,4.0,5.0,5.0,4.0,4.0,4.0,,2.8,4.0,3.666667,2.333333,5.333333,4.666667,4.333333,4.0
56914,1060,2020-04-03 11:38:10,EN,61,Female,"Some College, short continuing education or equivalent",Some College or equivalent,Not employed,United States,no,California,Single,0.0,Yes,Life carries on as usual,0.0,0.0,Program B,,No,5.0,1.0,4.0,3.0,3.0,4.0,3.0,3.0,4.0,2.0,5.0,4.0,5.0,4.0,9.0,4.0,9.0,5.0,10.0,10.0,7.0,6.0,6.0,6.0,6.0,6.0,5.0,6.0,6.0,6.0,5.0,6.0,2.0,2.0,6.0,3.0,6.0,6.0,1.0,6.0,6.0,1.0,1.0,5.0,6.0,5.0,1.0,5.0,99.0,5.0,99.0,99.0,6.0,5.0,5.0,99.0,99.0,6.0,6.0,5.0,6.0,6.0,2.0,5.0,2.0,6.0,6.0,2.0,6.0,2.0,6.0,99.0,The loneliness is Hell,6.0,5.0,6.0,6.0,6.0,6.0,6.0,6.0,6.0,6.0,2.0,6.0,6.0,4.0,6.0,4.0,1.0,1.0,1.0,5.0,5.0,6.0,6.0,6.0,6.0,4.0,The dogs keep me on my toes,1.0,1.0,1.0,6.0,3.0,4.0,If there was just ONE trust worthy media outlet would we great. Too many are on the hoard it all fear bandwagon. Glad I dont watch any type of news.,3.2,4.666667,4.0,6.0,4.333333,5.666667,5.333333,5.9
56946,1044,2020-04-03 11:34:16,EN,36,Female,PhD/Doctorate,Up to 12 years of school,Full time employed,United States,no,OK,Married/cohabiting,0.0,Yes,Life carries on with minor changes,1.0,0.0,,Program C,No,3.0,4.0,5.0,3.0,2.0,3.0,3.0,2.0,2.0,4.0,2.0,2.0,3.0,6.0,8.0,0.0,2.0,2.0,4.0,4.0,0.0,4.0,5.0,3.0,5.0,5.0,0.0,4.0,5.0,6.0,1.0,1.0,4.0,6.0,6.0,4.0,3.0,2.0,6.0,4.0,5.0,4.0,4.0,4.0,3.0,4.0,3.0,4.0,3.0,4.0,99.0,6.0,3.0,5.0,99.0,1.0,99.0,6.0,1.0,6.0,6.0,6.0,5.0,4.0,3.0,3.0,4.0,1.0,2.0,4.0,5.0,2.0,,5.0,5.0,4.0,5.0,5.0,5.0,5.0,6.0,4.0,5.0,2.0,1.0,4.0,4.0,4.0,3.0,1.0,1.0,4.0,3.0,1.0,1.0,4.0,4.0,1.0,3.0,,1.0,4.0,4.0,3.0,4.0,1.0,Being in a red state with a governor who is not issuing a statewide shelter-in-place for everyone is deeply concerning.,3.5,2.333333,5.0,2.0,4.333333,3.333333,4.0,4.9
56972,1102,2020-04-03 11:31:49,EN,27,Male,"College degree, bachelor, master",Some College or equivalent,Not employed,United States,no,California,Single,0.0,Not sure,Life carries on with minor changes,2.0,2.0,Program B,,No,3.0,2.0,5.0,3.0,3.0,2.0,4.0,3.0,3.0,4.0,3.0,3.0,3.0,2.0,7.0,1.0,6.0,6.0,2.0,6.0,2.0,6.0,6.0,6.0,6.0,6.0,4.0,6.0,6.0,5.0,4.0,1.0,3.0,5.0,3.0,5.0,3.0,2.0,3.0,6.0,6.0,6.0,3.0,6.0,6.0,4.0,1.0,6.0,6.0,5.0,6.0,6.0,5.0,5.0,1.0,6.0,6.0,6.0,5.0,6.0,5.0,6.0,6.0,6.0,4.0,5.0,6.0,5.0,5.0,5.0,6.0,6.0,,5.0,6.0,5.0,5.0,5.0,5.0,4.0,5.0,5.0,2.0,2.0,5.0,4.0,5.0,3.0,2.0,3.0,3.0,4.0,5.0,5.0,1.0,6.0,6.0,4.0,3.0,,5.0,5.0,5.0,2.0,5.0,3.0,Economic collapse inevitable,3.0,3.0,3.333333,3.0,6.0,5.333333,5.333333,4.7
57092,1097,2020-04-03 11:16:40,EN,44,Male,"College degree, bachelor, master",Up to 12 years of school,Full time employed,United States,yes,California,Married/cohabiting,2.0,Yes,Isolated,1.0,2.0,,Program D,No,4.0,3.0,3.0,3.0,3.0,2.0,3.0,2.0,4.0,3.0,2.0,2.0,2.0,7.0,7.0,6.0,8.0,8.0,8.0,8.0,8.0,4.0,5.0,4.0,5.0,5.0,4.0,5.0,3.0,4.0,1.0,3.0,3.0,4.0,4.0,4.0,4.0,3.0,4.0,4.0,4.0,2.0,4.0,4.0,5.0,4.0,3.0,3.0,4.0,4.0,4.0,4.0,3.0,3.0,4.0,4.0,4.0,4.0,5.0,4.0,4.0,4.0,4.0,4.0,4.0,4.0,4.0,4.0,3.0,3.0,5.0,2.0,,3.0,3.0,3.0,3.0,4.0,4.0,3.0,4.0,3.0,5.0,3.0,4.0,4.0,2.0,4.0,4.0,1.0,1.0,6.0,4.0,4.0,4.0,4.0,5.0,5.0,5.0,,2.0,5.0,5.0,5.0,4.0,4.0,,3.2,2.0,3.666667,3.333333,3.333333,4.0,3.666667,3.5
57142,1487,2020-04-03 11:16:43,EN,68,Female,Up to 12 years of school,Up to 12 years of school,Retired,United States,no,michigan,Divorced/widowed,0.0,Yes,Life carries on with minor changes,0.0,0.0,Program A,,No,1.0,1.0,3.0,5.0,3.0,2.0,4.0,5.0,3.0,1.0,5.0,5.0,5.0,7.0,9.0,8.0,10.0,10.0,10.0,10.0,7.0,5.0,6.0,6.0,6.0,6.0,3.0,6.0,6.0,6.0,3.0,4.0,1.0,4.0,4.0,5.0,4.0,2.0,5.0,1.0,6.0,2.0,2.0,5.0,6.0,3.0,3.0,5.0,2.0,99.0,99.0,99.0,5.0,6.0,99.0,99.0,99.0,6.0,2.0,6.0,6.0,5.0,99.0,4.0,99.0,,5.0,99.0,2.0,1.0,4.0,99.0,,6.0,3.0,4.0,6.0,6.0,2.0,6.0,6.0,3.0,6.0,5.0,6.0,6.0,4.0,3.0,6.0,4.0,6.0,6.0,4.0,4.0,6.0,1.0,2.0,2.0,5.0,,6.0,6.0,6.0,5.0,6.0,5.0,i feel lonely as i live alone there are many days i neither see or talk to anyone. i do appreciate my dogs,1.8,5.0,3.333333,2.666667,3.0,5.333333,4.0,4.8
57183,9219,2020-04-03 13:22:08,EN,18,Female,"Some College, short continuing education or equivalent",College degree,Student,United States,no,Washington,Single,0.0,Yes,Isolated,2.0,0.0,Program A,,Yes,5.0,5.0,5.0,2.0,2.0,5.0,2.0,1.0,4.0,5.0,5.0,5.0,5.0,6.0,9.0,0.0,0.0,0.0,0.0,10.0,0.0,5.0,5.0,5.0,6.0,6.0,0.0,6.0,6.0,6.0,6.0,3.0,3.0,6.0,5.0,1.0,6.0,6.0,2.0,5.0,6.0,4.0,2.0,6.0,6.0,3.0,5.0,3.0,2.0,2.0,99.0,5.0,3.0,6.0,1.0,6.0,99.0,5.0,6.0,6.0,5.0,6.0,5.0,6.0,4.0,6.0,6.0,4.0,2.0,2.0,6.0,4.0,,5.0,5.0,5.0,5.0,5.0,5.0,5.0,5.0,5.0,5.0,4.0,5.0,5.0,3.0,5.0,5.0,5.0,4.0,5.0,4.0,4.0,4.0,3.0,5.0,1.0,5.0,,4.0,3.0,2.0,5.0,5.0,2.0,,4.6,5.0,5.666667,5.666667,5.0,5.666667,2.666667,5.0
57238,5202,2020-04-03 12:10:15,EN,37,Female,"College degree, bachelor, master",College degree,Student,United States,no,California,Married/cohabiting,1.0,Yes,Isolated,1.0,1.0,,Program D,No,4.0,5.0,5.0,3.0,3.0,4.0,2.0,2.0,3.0,4.0,4.0,5.0,5.0,4.0,8.0,3.0,7.0,7.0,3.0,5.0,0.0,5.0,6.0,5.0,5.0,6.0,0.0,4.0,5.0,5.0,3.0,1.0,2.0,3.0,2.0,6.0,5.0,4.0,3.0,6.0,6.0,6.0,2.0,6.0,6.0,3.0,3.0,6.0,4.0,3.0,6.0,6.0,5.0,6.0,2.0,2.0,5.0,6.0,4.0,6.0,6.0,6.0,2.0,5.0,5.0,5.0,5.0,2.0,5.0,2.0,6.0,6.0,Many people who are graduating this year do not get a graduation ceremony.,5.0,5.0,4.0,4.0,5.0,5.0,5.0,5.0,5.0,5.0,1.0,3.0,3.0,2.0,2.0,4.0,2.0,4.0,4.0,5.0,5.0,4.0,5.0,4.0,2.0,2.0,,5.0,6.0,6.0,5.0,5.0,2.0,,3.9,4.666667,2.0,4.333333,6.0,5.666667,4.333333,4.8
57284,1126,2020-04-03 10:56:38,EN,66,Female,"College degree, bachelor, master",Up to 12 years of school,Retired,United States,no,Michigan,Divorced/widowed,0.0,Yes,Isolated,1.0,0.0,,,,2.0,2.0,3.0,5.0,4.0,1.0,5.0,5.0,3.0,2.0,4.0,3.0,3.0,6.0,8.0,7.0,7.0,7.0,6.0,9.0,3.0,6.0,6.0,6.0,5.0,6.0,0.0,6.0,6.0,5.0,1.0,4.0,5.0,5.0,3.0,5.0,5.0,4.0,3.0,5.0,6.0,5.0,4.0,5.0,5.0,4.0,2.0,5.0,99.0,99.0,99.0,99.0,2.0,5.0,2.0,5.0,99.0,4.0,4.0,6.0,5.0,6.0,99.0,4.0,99.0,3.0,4.0,5.0,2.0,1.0,5.0,99.0,,6.0,6.0,6.0,6.0,6.0,5.0,6.0,6.0,5.0,6.0,4.0,3.0,6.0,2.0,6.0,6.0,6.0,6.0,6.0,4.0,4.0,5.0,5.0,6.0,4.0,4.0,,3.0,4.0,3.0,3.0,4.0,4.0,,1.8,3.333333,3.333333,4.333333,5.333333,4.333333,4.666667,5.8
57460,38703,2020-04-03 21:01:44,SME,50,Female,"College degree, bachelor, master",Up to 12 years of school,Self-employed,United States,yes,Arizona,Married/cohabiting,0.0,Yes,Life carries on with minor changes,0.0,0.0,Program B,,No,2.0,2.0,3.0,5.0,5.0,3.0,5.0,3.0,2.0,2.0,2.0,1.0,2.0,10.0,10.0,9.0,9.0,9.0,9.0,10.0,10.0,4.0,6.0,5.0,6.0,6.0,4.0,6.0,6.0,6.0,1.0,6.0,2.0,3.0,3.0,4.0,4.0,4.0,5.0,3.0,5.0,3.0,2.0,5.0,5.0,5.0,1.0,4.0,2.0,2.0,2.0,2.0,2.0,1.0,1.0,1.0,2.0,4.0,2.0,4.0,3.0,4.0,2.0,2.0,2.0,1.0,1.0,4.0,1.0,1.0,1.0,1.0,,6.0,6.0,6.0,6.0,6.0,6.0,6.0,6.0,6.0,6.0,5.0,5.0,6.0,4.0,6.0,5.0,2.0,1.0,6.0,5.0,5.0,4.0,5.0,6.0,5.0,4.0,,4.0,5.0,2.0,4.0,4.0,6.0,,2.0,1.666667,3.0,3.333333,3.666667,5.0,5.0,6.0
57583,3286,2020-04-03 10:57:17,EN,48,Male,"College degree, bachelor, master",Up to 12 years of school,Full time employed,United States,no,Nevada,Married/cohabiting,0.0,Yes,Isolated,1.0,0.0,Program A,,Yes,3.0,3.0,3.0,4.0,3.0,3.0,4.0,4.0,2.0,3.0,2.0,2.0,3.0,7.0,9.0,5.0,6.0,9.0,8.0,10.0,2.0,5.0,5.0,4.0,6.0,6.0,0.0,5.0,6.0,6.0,1.0,3.0,3.0,4.0,4.0,5.0,4.0,4.0,2.0,6.0,5.0,6.0,3.0,5.0,5.0,4.0,2.0,5.0,4.0,4.0,1.0,2.0,4.0,1.0,1.0,2.0,1.0,5.0,3.0,5.0,5.0,1.0,1.0,2.0,1.0,2.0,2.0,1.0,1.0,1.0,2.0,1.0,,6.0,6.0,5.0,6.0,6.0,6.0,5.0,6.0,5.0,5.0,3.0,1.0,5.0,1.0,6.0,4.0,2.0,1.0,2.0,4.0,4.0,3.0,5.0,3.0,1.0,3.0,,2.0,5.0,5.0,2.0,3.0,4.0,,2.6,2.333333,3.333333,4.333333,5.666667,4.666667,4.666667,5.6
57703,517,2020-04-04 09:57:19,EN,27,Female,"College degree, bachelor, master",College degree,Full time employed,United States,no,Michigan,Married/cohabiting,0.0,Yes,Isolated,1.0,0.0,Program A,,No,3.0,4.0,4.0,3.0,3.0,3.0,3.0,3.0,3.0,3.0,3.0,3.0,4.0,5.0,8.0,5.0,5.0,6.0,6.0,5.0,3.0,4.0,5.0,5.0,6.0,6.0,2.0,5.0,3.0,3.0,4.0,3.0,2.0,5.0,5.0,3.0,3.0,1.0,5.0,5.0,5.0,4.0,4.0,5.0,4.0,5.0,4.0,4.0,3.0,4.0,99.0,4.0,4.0,6.0,6.0,2.0,99.0,5.0,4.0,5.0,6.0,6.0,4.0,4.0,5.0,6.0,3.0,4.0,5.0,3.0,6.0,2.0,,6.0,6.0,6.0,6.0,6.0,5.0,6.0,6.0,5.0,6.0,3.0,5.0,5.0,2.0,4.0,4.0,6.0,5.0,6.0,5.0,4.0,3.0,4.0,5.0,6.0,2.0,,5.0,5.0,3.0,5.0,5.0,3.0,,3.2,3.333333,4.666667,2.0,4.666667,4.0,4.0,5.8
57936,349,2020-04-04 09:28:47,EN,46,Female,"College degree, bachelor, master",College degree,Retired,United States,no,CA,Married/cohabiting,1.0,Yes,Isolated,1.0,1.0,,Program D,No,3.0,3.0,3.0,4.0,2.0,3.0,3.0,2.0,4.0,3.0,3.0,2.0,2.0,,,,,,,,,,,,,,,,,,,,,,,,,,,,,,,,,,,,,,,,,,,,,,,,,,,,,,,,,,,,,,,,,,,,,,,,,,,,,,,,,,,,,,,,,,,,,,,3.2,2.333333,,,,,,
57960,1038,2020-04-03 09:37:05,EN,33,Male,"College degree, bachelor, master",Some College or equivalent,Self-employed,United States,yes,California,Married/cohabiting,0.0,Yes,Isolated,1.0,0.0,,Program D,No,3.0,3.0,3.0,4.0,3.0,3.0,4.0,3.0,4.0,2.0,2.0,3.0,2.0,3.0,7.0,5.0,4.0,6.0,3.0,6.0,1.0,4.0,5.0,5.0,5.0,5.0,0.0,5.0,5.0,5.0,4.0,3.0,4.0,3.0,3.0,3.0,3.0,2.0,4.0,5.0,6.0,6.0,4.0,3.0,4.0,2.0,4.0,4.0,3.0,2.0,99.0,2.0,5.0,5.0,2.0,3.0,99.0,5.0,4.0,4.0,5.0,5.0,2.0,3.0,4.0,4.0,5.0,2.0,3.0,2.0,6.0,5.0,,4.0,4.0,5.0,5.0,5.0,4.0,5.0,5.0,5.0,5.0,4.0,4.0,5.0,3.0,3.0,4.0,4.0,4.0,4.0,3.0,4.0,3.0,5.0,5.0,2.0,4.0,,4.0,2.0,2.0,2.0,3.0,3.0,,2.8,2.333333,3.333333,2.666667,5.666667,3.333333,3.0,4.7
58023,1084,2020-04-03 09:29:57,FI,59,Female,"Some College, short continuing education or equivalent",Up to 12 years of school,Retired,United States,yes,,Married/cohabiting,0.0,Yes,Isolated,2.0,0.0,,Program D,No,2.0,2.0,2.0,5.0,3.0,1.0,4.0,4.0,3.0,1.0,2.0,2.0,4.0,7.0,10.0,4.0,5.0,2.0,3.0,8.0,2.0,5.0,5.0,5.0,5.0,5.0,2.0,5.0,6.0,6.0,5.0,3.0,1.0,2.0,2.0,5.0,3.0,4.0,4.0,5.0,4.0,5.0,4.0,5.0,4.0,5.0,1.0,6.0,2.0,1.0,99.0,4.0,2.0,5.0,1.0,2.0,99.0,6.0,5.0,6.0,5.0,6.0,1.0,1.0,3.0,4.0,4.0,5.0,2.0,1.0,6.0,6.0,,6.0,6.0,6.0,6.0,6.0,6.0,6.0,6.0,6.0,6.0,3.0,5.0,6.0,1.0,2.0,2.0,1.0,1.0,5.0,2.0,1.0,5.0,3.0,5.0,1.0,2.0,,6.0,6.0,6.0,4.0,6.0,5.0,,1.9,2.666667,2.0,3.333333,4.666667,4.0,5.666667,6.0
58323,833,2020-04-03 08:54:33,EN,27,Female,"College degree, bachelor, master",Some College or equivalent,Full time employed,United States,no,Colorado,Single,0.0,Yes,Life carries on with minor changes,0.0,0.0,,Program D,No,2.0,5.0,4.0,5.0,2.0,3.0,2.0,3.0,1.0,2.0,3.0,3.0,2.0,3.0,8.0,4.0,4.0,4.0,7.0,9.0,1.0,4.0,6.0,6.0,5.0,6.0,1.0,6.0,6.0,5.0,2.0,1.0,3.0,6.0,3.0,6.0,3.0,2.0,5.0,5.0,6.0,6.0,6.0,5.0,4.0,5.0,2.0,6.0,3.0,5.0,99.0,5.0,4.0,5.0,1.0,4.0,99.0,4.0,4.0,4.0,6.0,6.0,1.0,4.0,1.0,4.0,5.0,1.0,4.0,1.0,5.0,2.0,,5.0,5.0,5.0,5.0,5.0,5.0,5.0,5.0,5.0,5.0,1.0,2.0,5.0,3.0,5.0,4.0,1.0,1.0,4.0,3.0,3.0,2.0,4.0,5.0,1.0,2.0,,1.0,3.0,5.0,3.0,1.0,1.0,,2.9,2.666667,3.333333,2.333333,5.666667,3.333333,5.333333,5.0
58408,819,2020-04-03 08:44:51,EN,38,Female,"College degree, bachelor, master",College degree,Self-employed,United States,yes,California,Married/cohabiting,4.0,Yes,Isolated,2.0,3.0,,Program C,Yes,2.0,4.0,2.0,4.0,3.0,2.0,4.0,3.0,2.0,2.0,2.0,2.0,3.0,7.0,8.0,4.0,3.0,5.0,4.0,9.0,1.0,4.0,6.0,5.0,6.0,6.0,0.0,5.0,5.0,5.0,4.0,4.0,3.0,4.0,4.0,6.0,4.0,3.0,6.0,6.0,6.0,6.0,3.0,4.0,6.0,4.0,3.0,5.0,5.0,5.0,4.0,4.0,4.0,4.0,2.0,5.0,5.0,5.0,5.0,6.0,4.0,5.0,3.0,4.0,4.0,3.0,3.0,5.0,3.0,3.0,6.0,2.0,,6.0,6.0,6.0,5.0,6.0,5.0,6.0,6.0,6.0,6.0,2.0,4.0,5.0,3.0,5.0,2.0,1.0,2.0,4.0,4.0,2.0,3.0,4.0,3.0,2.0,2.0,,4.0,6.0,6.0,4.0,2.0,2.0,,2.4,2.333333,3.0,2.666667,6.0,4.666667,4.333333,5.8
58433,1391,2020-04-04 08:52:20,EN,37,Male,"College degree, bachelor, master",College degree,Full time employed,United States,no,California,Married/cohabiting,4.0,Yes,Life carries on with minor changes,1.0,2.0,Program A,,No,3.0,3.0,3.0,3.0,3.0,2.0,3.0,4.0,3.0,2.0,1.0,2.0,3.0,3.0,7.0,1.0,1.0,1.0,1.0,5.0,1.0,4.0,6.0,4.0,6.0,6.0,0.0,2.0,2.0,3.0,2.0,2.0,3.0,5.0,4.0,5.0,6.0,5.0,2.0,5.0,5.0,5.0,5.0,4.0,3.0,4.0,2.0,5.0,3.0,2.0,5.0,3.0,5.0,4.0,1.0,4.0,5.0,3.0,4.0,5.0,6.0,5.0,3.0,4.0,4.0,3.0,3.0,3.0,3.0,4.0,5.0,1.0,,3.0,5.0,5.0,5.0,5.0,5.0,6.0,6.0,5.0,3.0,4.0,5.0,5.0,3.0,4.0,4.0,3.0,3.0,4.0,5.0,5.0,4.0,5.0,4.0,2.0,4.0,,5.0,5.0,5.0,4.0,5.0,4.0,"I live in a rural area with very limited resources.  It is distressing that people who live in more populated areas (e.g. places with more cases of Covid-19) have decided to ""vacation"" in our small towns.  They should be following the Governor's ""shelter-in-place"" orders rather than bringing the infection to their second homes and AirBnb.  This is especially disturbing when these are family members from affluent regions acting like there is nothing to worry about, and causing family ""drama"" by being offended when we refuse to visit them without waiting a minimum of 2 weeks for symptoms to present.",2.7,2.0,3.666667,5.333333,5.0,3.0,4.666667,4.8
58500,391,2020-04-04 08:28:22,EN,67,Female,"College degree, bachelor, master",Up to 12 years of school,Retired,United States,no,Washington,Married/cohabiting,0.0,Yes,Life carries on with minor changes,1.0,0.0,,Program D,No,1.0,3.0,3.0,5.0,4.0,1.0,5.0,4.0,1.0,1.0,2.0,1.0,3.0,6.0,10.0,1.0,7.0,7.0,4.0,10.0,1.0,6.0,6.0,6.0,1.0,6.0,0.0,,,,,,,,,,,,,,,,,,,,,,,,,,,,,,,,,,,,,,,,,,,,,,,,,,,,,,,,,,,,,,,,,,,,,,,,,,,,,,,,,1.6,2.0,,,,,,
58623,1306,2020-04-03 08:31:40,EN,72,Female,PhD/Doctorate,College degree,Retired,United States,no,Minnesota,Married/cohabiting,0.0,Yes,Isolated,1.0,0.0,Program A,,No,2.0,3.0,4.0,4.0,2.0,2.0,5.0,4.0,2.0,2.0,5.0,3.0,5.0,4.0,7.0,1.0,2.0,7.0,3.0,8.0,0.0,5.0,6.0,6.0,5.0,5.0,0.0,4.0,5.0,6.0,5.0,2.0,4.0,5.0,4.0,5.0,6.0,5.0,2.0,5.0,6.0,4.0,4.0,4.0,5.0,5.0,4.0,5.0,3.0,99.0,99.0,99.0,5.0,6.0,1.0,2.0,99.0,5.0,5.0,6.0,6.0,6.0,99.0,5.0,2.0,5.0,5.0,4.0,2.0,2.0,6.0,2.0,Very concerned about the Impact on the upcoming US election,6.0,6.0,6.0,5.0,5.0,6.0,2.0,5.0,6.0,6.0,5.0,5.0,5.0,2.0,5.0,4.0,1.0,1.0,5.0,5.0,4.0,5.0,4.0,4.0,1.0,5.0,I rely on and trust my state government far more than the federal government,2.0,4.0,2.0,2.0,2.0,5.0,"I am an actress and there is no work at all now.  I am older, so if this virus permanently and negatively affects my future, I am not so concerned about it. But I am greatly concerned for my childrens future well being.  Having a do-nothing idiot for a president strongly affects my sense of well-being.",2.4,4.333333,3.666667,5.333333,5.0,4.0,4.333333,5.3
58658,919,2020-04-03 08:22:11,DE,32,Male,"College degree, bachelor, master",College degree,Not employed,United States,yes,"Virginia, USA",Married/cohabiting,0.0,No,Life carries on with minor changes,1.0,0.0,,Program D,Yes,1.0,3.0,1.0,5.0,4.0,1.0,5.0,4.0,2.0,1.0,1.0,1.0,3.0,7.0,9.0,6.0,8.0,8.0,3.0,6.0,,2.0,2.0,2.0,4.0,5.0,0.0,5.0,5.0,5.0,2.0,2.0,4.0,2.0,1.0,6.0,3.0,2.0,4.0,5.0,3.0,4.0,1.0,3.0,4.0,6.0,2.0,6.0,4.0,4.0,99.0,2.0,2.0,2.0,1.0,1.0,99.0,4.0,2.0,1.0,1.0,1.0,1.0,1.0,1.0,1.0,1.0,1.0,1.0,1.0,1.0,3.0,,6.0,6.0,4.0,4.0,6.0,6.0,6.0,4.0,6.0,6.0,1.0,3.0,2.0,1.0,1.0,4.0,3.0,1.0,4.0,1.0,1.0,2.0,1.0,6.0,1.0,4.0,,3.0,3.0,3.0,3.0,3.0,3.0,,1.5,1.666667,1.333333,2.666667,4.0,4.333333,5.666667,5.4
58772,1315,2020-04-03 08:16:15,EN,29,Other/would rather not say,"College degree, bachelor, master",College degree,Full time employed,United States,no,Minnesota,Married/cohabiting,0.0,Yes,Isolated,1.0,0.0,Program A,,No,3.0,2.0,4.0,4.0,2.0,3.0,3.0,4.0,4.0,3.0,5.0,2.0,5.0,2.0,7.0,3.0,,6.0,2.0,7.0,,5.0,6.0,6.0,6.0,6.0,0.0,4.0,4.0,6.0,5.0,2.0,5.0,6.0,6.0,5.0,2.0,1.0,4.0,3.0,4.0,6.0,5.0,4.0,4.0,5.0,2.0,5.0,2.0,6.0,99.0,4.0,2.0,6.0,99.0,6.0,99.0,6.0,2.0,5.0,5.0,2.0,6.0,5.0,1.0,6.0,6.0,6.0,4.0,3.0,6.0,1.0,,6.0,6.0,5.0,6.0,6.0,5.0,4.0,6.0,4.0,6.0,1.0,6.0,1.0,4.0,2.0,5.0,4.0,4.0,4.0,1.0,1.0,3.0,5.0,5.0,1.0,1.0,,,,,,,,,3.0,4.0,4.666667,2.0,4.333333,3.333333,5.0,5.4
58899,790,2020-04-03 07:55:04,EN,46,Female,"College degree, bachelor, master",College degree,Full time employed,United States,no,CA,Married/cohabiting,0.0,Yes,Isolated,2.0,0.0,Program B,,No,2.0,2.0,2.0,5.0,5.0,3.0,5.0,4.0,2.0,2.0,2.0,2.0,3.0,7.0,9.0,5.0,9.0,9.0,7.0,8.0,4.0,4.0,4.0,4.0,6.0,6.0,1.0,6.0,6.0,6.0,1.0,4.0,4.0,4.0,1.0,5.0,5.0,4.0,2.0,3.0,6.0,4.0,3.0,5.0,5.0,5.0,3.0,5.0,2.0,4.0,99.0,2.0,2.0,4.0,1.0,2.0,99.0,6.0,2.0,4.0,4.0,1.0,4.0,3.0,3.0,3.0,3.0,6.0,3.0,1.0,3.0,1.0,,6.0,6.0,5.0,6.0,6.0,6.0,6.0,6.0,5.0,6.0,5.0,5.0,6.0,5.0,6.0,6.0,5.0,5.0,3.0,4.0,6.0,4.0,4.0,5.0,1.0,5.0,,3.0,3.0,3.0,5.0,6.0,5.0,,1.8,2.333333,2.333333,4.666667,4.333333,4.666667,4.666667,5.8
58978,9313,2020-04-03 10:09:49,EN,38,Female,"College degree, bachelor, master",College degree,Student,United States,no,Minnesota,Married/cohabiting,0.0,No,Isolated,0.0,0.0,,Program D,No,2.0,3.0,5.0,3.0,2.0,4.0,3.0,2.0,2.0,3.0,4.0,2.0,4.0,6.0,9.0,3.0,3.0,9.0,5.0,9.0,1.0,4.0,5.0,6.0,6.0,5.0,1.0,5.0,5.0,6.0,1.0,4.0,4.0,5.0,5.0,2.0,4.0,2.0,2.0,4.0,5.0,5.0,2.0,4.0,4.0,2.0,4.0,4.0,4.0,6.0,99.0,6.0,2.0,6.0,1.0,99.0,99.0,4.0,4.0,5.0,5.0,5.0,4.0,2.0,1.0,5.0,5.0,2.0,4.0,2.0,4.0,4.0,,6.0,4.0,5.0,5.0,6.0,5.0,6.0,6.0,4.0,6.0,2.0,5.0,5.0,4.0,5.0,5.0,5.0,5.0,4.0,4.0,1.0,3.0,5.0,3.0,2.0,4.0,,4.0,4.0,5.0,4.0,4.0,5.0,,3.3,3.333333,5.0,3.666667,4.666667,4.333333,3.0,5.3
59167,410,2020-04-04 07:27:16,EN,24,Male,"College degree, bachelor, master",College degree,Not employed,United States,no,Virginia,Single,0.0,Not sure,Isolated,2.0,0.0,,,,4.0,4.0,4.0,3.0,2.0,3.0,4.0,2.0,5.0,4.0,4.0,4.0,4.0,7.0,8.0,5.0,4.0,5.0,7.0,8.0,4.0,3.0,5.0,5.0,6.0,6.0,3.0,6.0,,,,,3.0,,,,,,,,,,,,,,,,,,,,,,,,,,,,,,,,,,,,,,,,,,,,,,,,,,,,,,,,,,,,,,,,,,,,,,,,,,,3.7,4.0,,,,,,
59236,953,2020-04-04 07:30:22,EN,70,Male,"College degree, bachelor, master",Up to 12 years of school,Full time employed,United States,no,Colorado,Married/cohabiting,2.0,Yes,Life carries on with minor changes,1.0,0.0,Program A,,No,4.0,3.0,4.0,3.0,2.0,2.0,3.0,4.0,2.0,2.0,3.0,3.0,3.0,6.0,10.0,2.0,6.0,6.0,2.0,4.0,0.0,5.0,5.0,5.0,6.0,6.0,0.0,6.0,5.0,5.0,1.0,2.0,4.0,1.0,1.0,5.0,2.0,3.0,5.0,4.0,4.0,5.0,2.0,4.0,5.0,5.0,2.0,5.0,1.0,1.0,5.0,6.0,4.0,5.0,99.0,2.0,99.0,6.0,2.0,5.0,4.0,5.0,1.0,1.0,2.0,99.0,5.0,3.0,1.0,2.0,6.0,99.0,,6.0,5.0,6.0,6.0,6.0,5.0,6.0,6.0,5.0,4.0,4.0,5.0,5.0,1.0,5.0,6.0,5.0,5.0,5.0,4.0,4.0,4.0,3.0,5.0,1.0,4.0,,4.0,6.0,5.0,4.0,4.0,5.0,,2.9,3.0,1.333333,2.333333,4.333333,4.666667,5.0,5.5
59463,1230,2020-04-04 07:12:21,SAR,46,Female,Up to 12 years of school,College degree,Self-employed,United States,no,Florida,Married/cohabiting,2.0,No,Isolated,1.0,0.0,Program A,,No,2.0,2.0,3.0,4.0,3.0,3.0,4.0,3.0,3.0,2.0,3.0,2.0,4.0,7.0,7.0,8.0,4.0,5.0,6.0,5.0,8.0,5.0,5.0,5.0,5.0,5.0,5.0,5.0,5.0,5.0,5.0,3.0,3.0,5.0,2.0,5.0,4.0,3.0,5.0,6.0,6.0,5.0,2.0,4.0,5.0,4.0,2.0,5.0,4.0,5.0,5.0,4.0,3.0,4.0,2.0,2.0,99.0,5.0,4.0,3.0,2.0,5.0,2.0,3.0,4.0,4.0,2.0,3.0,3.0,3.0,4.0,5.0,,5.0,5.0,4.0,5.0,5.0,5.0,5.0,5.0,5.0,5.0,4.0,5.0,5.0,5.0,5.0,5.0,2.0,2.0,5.0,5.0,4.0,4.0,5.0,4.0,2.0,5.0,,5.0,3.0,5.0,5.0,4.0,4.0,,2.5,3.0,3.0,3.0,5.666667,4.666667,4.666667,4.9
59590,676,2020-04-03 06:52:41,EN,47,Male,"College degree, bachelor, master",College degree,Full time employed,United States,no,NY,Married/cohabiting,3.0,Yes,Life carries on with minor changes,,3.0,Program B,,No,5.0,3.0,3.0,5.0,3.0,2.0,4.0,3.0,5.0,2.0,2.0,3.0,2.0,6.0,8.0,3.0,7.0,5.0,8.0,6.0,2.0,3.0,4.0,4.0,5.0,5.0,0.0,5.0,5.0,5.0,3.0,4.0,4.0,5.0,2.0,5.0,6.0,5.0,5.0,5.0,6.0,5.0,4.0,4.0,5.0,4.0,3.0,5.0,2.0,6.0,5.0,4.0,2.0,6.0,4.0,5.0,4.0,5.0,4.0,4.0,5.0,6.0,4.0,5.0,1.0,4.0,4.0,4.0,5.0,5.0,5.0,4.0,,5.0,5.0,6.0,4.0,5.0,5.0,5.0,5.0,5.0,5.0,4.0,5.0,5.0,5.0,5.0,4.0,4.0,3.0,5.0,5.0,4.0,4.0,5.0,5.0,5.0,5.0,,2.0,5.0,2.0,4.0,4.0,2.0,,2.9,2.333333,3.0,4.333333,5.333333,4.0,4.333333,5.0
59822,1203,2020-04-03 06:40:14,EN,35,Male,PhD/Doctorate,Up to 12 years of school,Full time employed,United States,yes,Germany,Single,1.0,Not sure,Isolated,0.0,1.0,,Program C,No,3.0,2.0,3.0,4.0,4.0,3.0,4.0,4.0,2.0,2.0,3.0,2.0,2.0,6.0,9.0,2.0,1.0,2.0,3.0,8.0,0.0,4.0,5.0,4.0,4.0,6.0,0.0,5.0,3.0,4.0,5.0,3.0,2.0,2.0,2.0,6.0,5.0,5.0,3.0,5.0,5.0,5.0,3.0,5.0,5.0,5.0,2.0,5.0,1.0,2.0,2.0,1.0,1.0,3.0,99.0,1.0,1.0,5.0,2.0,3.0,3.0,3.0,1.0,5.0,1.0,2.0,4.0,5.0,2.0,2.0,5.0,2.0,,6.0,6.0,5.0,5.0,6.0,6.0,6.0,6.0,6.0,6.0,2.0,6.0,5.0,1.0,5.0,1.0,6.0,6.0,6.0,3.0,2.0,3.0,5.0,5.0,1.0,,,1.0,6.0,6.0,6.0,1.0,5.0,,2.3,2.333333,1.666667,4.666667,5.0,4.666667,5.0,5.8
60062,1237,2020-04-03 06:22:21,FI,74,Male,"College degree, bachelor, master",Up to 9 years of school,Retired,United States,no,"Georgia, Henry county",Married/cohabiting,0.0,Yes,Isolated,1.0,0.0,,Program D,No,1.0,3.0,3.0,4.0,3.0,3.0,2.0,4.0,3.0,3.0,3.0,3.0,3.0,5.0,8.0,3.0,3.0,3.0,5.0,,5.0,6.0,6.0,6.0,4.0,2.0,3.0,5.0,6.0,6.0,1.0,2.0,5.0,5.0,5.0,5.0,4.0,3.0,3.0,4.0,2.0,5.0,4.0,3.0,2.0,5.0,1.0,5.0,2.0,5.0,99.0,99.0,2.0,1.0,1.0,2.0,99.0,6.0,6.0,6.0,6.0,6.0,99.0,2.0,5.0,5.0,6.0,2.0,2.0,2.0,2.0,99.0,,4.0,3.0,2.0,5.0,4.0,4.0,5.0,6.0,4.0,5.0,2.0,3.0,6.0,1.0,5.0,4.0,1.0,1.0,5.0,4.0,2.0,4.0,4.0,2.0,1.0,2.0,,1.0,6.0,6.0,4.0,6.0,2.0,,2.7,3.0,4.0,3.666667,3.666667,2.666667,5.333333,4.2
60102,3964,2020-04-03 07:03:47,EN,33,Female,"College degree, bachelor, master",College degree,Full time employed,United States,no,Minnesota,Married/cohabiting,1.0,Yes,Isolated,1.0,1.0,Program B,,No,4.0,3.0,4.0,3.0,4.0,4.0,3.0,3.0,3.0,3.0,2.0,4.0,4.0,7.0,9.0,2.0,5.0,6.0,8.0,10.0,2.0,4.0,5.0,4.0,6.0,6.0,1.0,5.0,5.0,5.0,2.0,2.0,2.0,5.0,4.0,4.0,5.0,4.0,2.0,4.0,5.0,5.0,1.0,6.0,6.0,4.0,2.0,5.0,4.0,5.0,4.0,2.0,2.0,5.0,3.0,2.0,4.0,5.0,4.0,5.0,6.0,5.0,6.0,5.0,3.0,5.0,2.0,3.0,4.0,2.0,5.0,5.0,,6.0,5.0,5.0,6.0,6.0,5.0,6.0,6.0,5.0,6.0,3.0,4.0,6.0,2.0,5.0,4.0,2.0,2.0,4.0,5.0,3.0,3.0,5.0,3.0,4.0,3.0,,4.0,6.0,6.0,4.0,3.0,2.0,,3.2,3.333333,4.0,4.666667,4.666667,6.0,4.666667,5.6
60181,9256,2020-04-03 08:25:38,EN,38,Female,"College degree, bachelor, master",College degree,Part time employed,United States,no,Ny,Married/cohabiting,2.0,Yes,Isolated,1.0,2.0,,Program C,No,4.0,4.0,5.0,3.0,2.0,3.0,2.0,2.0,5.0,4.0,3.0,2.0,5.0,3.0,6.0,3.0,7.0,5.0,3.0,8.0,,5.0,6.0,5.0,6.0,6.0,,6.0,6.0,6.0,1.0,1.0,6.0,5.0,6.0,3.0,4.0,3.0,2.0,6.0,6.0,5.0,1.0,4.0,5.0,5.0,2.0,6.0,3.0,6.0,5.0,5.0,6.0,5.0,1.0,2.0,6.0,6.0,6.0,6.0,6.0,6.0,5.0,3.0,2.0,99.0,99.0,5.0,3.0,1.0,6.0,1.0,I am strongly distressed by my and my families health or emergency medical situations unrelated to covid-19 if we need to seek help during this pandemic.,2.0,5.0,5.0,5.0,5.0,5.0,5.0,5.0,4.0,2.0,1.0,1.0,5.0,1.0,5.0,2.0,1.0,1.0,5.0,3.0,5.0,4.0,1.0,4.0,1.0,5.0,"Going outside for walks, playing with my children",2.0,5.0,4.0,2.0,3.0,4.0,School closure and having to educate my children at home has been a huge source of stress and anxiety.,4.0,3.333333,5.0,4.0,5.666667,5.0,5.333333,4.3
60192,812,2020-04-03 06:03:26,EN,65,Male,"College degree, bachelor, master",College degree,Retired,United States,no,Texas,Divorced/widowed,0.0,Yes,Life carries on with minor changes,2.0,2.0,,,,1.0,1.0,2.0,5.0,5.0,1.0,4.0,4.0,2.0,1.0,1.0,1.0,1.0,8.0,9.0,2.0,7.0,7.0,5.0,6.0,1.0,4.0,5.0,5.0,5.0,5.0,1.0,4.0,5.0,5.0,2.0,5.0,2.0,2.0,2.0,5.0,4.0,3.0,5.0,4.0,5.0,4.0,2.0,5.0,5.0,5.0,2.0,5.0,2.0,2.0,2.0,2.0,2.0,2.0,2.0,2.0,2.0,2.0,5.0,5.0,5.0,5.0,2.0,2.0,2.0,2.0,4.0,2.0,2.0,2.0,2.0,2.0,,5.0,4.0,4.0,4.0,5.0,4.0,2.0,4.0,4.0,4.0,2.0,5.0,5.0,5.0,5.0,4.0,2.0,2.0,5.0,4.0,3.0,4.0,4.0,5.0,3.0,5.0,,1.0,4.0,2.0,2.0,2.0,3.0,,1.4,1.0,2.0,3.0,4.333333,5.0,5.0,4.0
60936,525,2020-04-04 05:01:20,EN,30,Female,"College degree, bachelor, master",Up to 12 years of school,Full time employed,United States,no,Minnesota,Married/cohabiting,0.0,Yes,Life carries on with minor changes,2.0,0.0,,Program C,No,5.0,4.0,4.0,2.0,2.0,4.0,3.0,1.0,5.0,4.0,4.0,1.0,4.0,6.0,6.0,0.0,3.0,5.0,3.0,5.0,0.0,2.0,6.0,5.0,6.0,6.0,0.0,5.0,4.0,5.0,2.0,2.0,2.0,5.0,5.0,5.0,5.0,2.0,2.0,5.0,5.0,5.0,2.0,5.0,5.0,5.0,5.0,5.0,2.0,6.0,2.0,2.0,5.0,3.0,2.0,5.0,2.0,3.0,5.0,5.0,5.0,5.0,5.0,5.0,6.0,4.0,5.0,5.0,2.0,2.0,5.0,2.0,,,,,,,,,,,,,,,,,,,,,,,,,,,,,,,,,,,,4.2,3.0,4.0,4.0,5.0,5.0,4.0,
62143,940,2020-04-03 04:07:07,EN,63,Female,PhD/Doctorate,Some College or equivalent,Self-employed,United States,no,Delaware,Divorced/widowed,2.0,Not sure,Isolated,0.0,0.0,Program B,,Yes,3.0,4.0,2.0,4.0,4.0,1.0,5.0,4.0,1.0,2.0,3.0,1.0,2.0,5.0,8.0,3.0,10.0,10.0,6.0,6.0,8.0,6.0,6.0,6.0,6.0,6.0,3.0,6.0,6.0,6.0,1.0,2.0,1.0,6.0,1.0,6.0,4.0,2.0,6.0,6.0,3.0,5.0,4.0,3.0,5.0,6.0,1.0,6.0,1.0,5.0,99.0,6.0,1.0,4.0,1.0,99.0,99.0,6.0,2.0,4.0,5.0,5.0,2.0,4.0,1.0,4.0,6.0,99.0,5.0,4.0,4.0,5.0,,5.0,5.0,4.0,2.0,5.0,6.0,4.0,5.0,6.0,5.0,5.0,2.0,5.0,1.0,5.0,4.0,5.0,1.0,5.0,2.0,1.0,6.0,6.0,4.0,1.0,5.0,,4.0,1.0,6.0,1.0,5.0,2.0,,2.0,2.0,2.666667,2.333333,4.666667,3.666667,6.0,4.7
63220,1033,2020-04-03 00:26:22,EN,49,Female,"College degree, bachelor, master",College degree,Not employed,United States,no,CA,Married/cohabiting,2.0,Yes,Isolated,1.0,0.0,,Program C,No,3.0,3.0,4.0,3.0,2.0,3.0,3.0,1.0,3.0,4.0,4.0,3.0,4.0,7.0,9.0,3.0,8.0,7.0,9.0,9.0,1.0,5.0,6.0,5.0,4.0,4.0,3.0,6.0,6.0,6.0,1.0,5.0,4.0,6.0,4.0,5.0,6.0,4.0,5.0,2.0,5.0,4.0,3.0,5.0,5.0,4.0,4.0,4.0,2.0,6.0,6.0,5.0,5.0,6.0,5.0,6.0,99.0,6.0,5.0,4.0,6.0,6.0,99.0,6.0,6.0,6.0,5.0,4.0,3.0,2.0,6.0,6.0,,5.0,3.0,4.0,4.0,6.0,3.0,4.0,3.0,1.0,4.0,3.0,5.0,6.0,4.0,5.0,6.0,2.0,1.0,4.0,5.0,5.0,5.0,3.0,4.0,6.0,5.0,,4.0,6.0,6.0,4.0,6.0,2.0,,3.5,3.666667,4.0,4.0,3.666667,4.666667,3.666667,3.7
63230,1452,2020-04-03 00:28:58,EN,63,Female,"Some College, short continuing education or equivalent",Up to 9 years of school,Full time employed,United States,no,Pennsylvania,Divorced/widowed,0.0,Yes,Life carries on with minor changes,1.0,0.0,Program B,,Not sure,2.0,4.0,4.0,3.0,2.0,3.0,3.0,3.0,4.0,2.0,3.0,3.0,3.0,4.0,7.0,3.0,5.0,8.0,6.0,9.0,4.0,6.0,6.0,4.0,5.0,5.0,3.0,6.0,6.0,4.0,1.0,4.0,3.0,6.0,5.0,4.0,2.0,4.0,4.0,4.0,5.0,4.0,3.0,2.0,5.0,5.0,4.0,5.0,1.0,6.0,99.0,99.0,3.0,2.0,2.0,2.0,99.0,6.0,3.0,6.0,6.0,6.0,99.0,1.0,2.0,3.0,1.0,6.0,2.0,1.0,4.0,1.0,,6.0,6.0,6.0,5.0,6.0,5.0,5.0,6.0,5.0,5.0,3.0,5.0,6.0,4.0,5.0,5.0,4.0,4.0,4.0,6.0,6.0,5.0,5.0,2.0,4.0,2.0,,2.0,5.0,2.0,3.0,2.0,5.0,As a health care professional I am frightened for my safety on the job due to the lack of PPE. I sometimes feel powerless as a health care professional due to lack of equipment and medication to encourage healing in my patients.,3.2,3.0,4.666667,3.0,4.333333,3.666667,4.333333,5.5
63279,31900,2020-04-03 08:33:50,EN,59,Female,"Some College, short continuing education or equivalent",Up to 12 years of school,Not employed,United States,no,California,Married/cohabiting,1.0,Yes,Isolated,2.0,0.0,,Program C,No,2.0,2.0,2.0,4.0,4.0,2.0,4.0,4.0,2.0,2.0,2.0,2.0,2.0,8.0,10.0,2.0,7.0,5.0,0.0,5.0,0.0,5.0,5.0,5.0,5.0,6.0,4.0,5.0,6.0,5.0,2.0,4.0,2.0,3.0,2.0,5.0,5.0,4.0,2.0,4.0,6.0,2.0,2.0,5.0,5.0,3.0,2.0,5.0,6.0,4.0,99.0,6.0,3.0,2.0,2.0,2.0,99.0,6.0,3.0,4.0,4.0,6.0,2.0,2.0,2.0,2.0,2.0,1.0,3.0,2.0,2.0,2.0,,4.0,5.0,4.0,4.0,3.0,5.0,5.0,6.0,5.0,5.0,4.0,5.0,5.0,3.0,5.0,3.0,3.0,3.0,4.0,4.0,6.0,5.0,4.0,5.0,2.0,4.0,,5.0,5.0,4.0,2.0,3.0,3.0,"Public disregard and medical staff @ risk, not enough supplies and support <U+0001F494>",2.0,2.0,2.333333,4.666667,4.0,5.0,4.333333,4.6
63300,658,2020-04-02 23:41:04,EN,18,Female,"Some College, short continuing education or equivalent",College degree,Not employed,United States,no,Florida,Single,0.0,Yes,Life carries on with minor changes,2.0,0.0,Program A,,Yes,2.0,3.0,4.0,3.0,3.0,3.0,4.0,3.0,3.0,3.0,4.0,3.0,2.0,5.0,8.0,4.0,6.0,6.0,4.0,7.0,5.0,3.0,6.0,4.0,5.0,5.0,4.0,6.0,5.0,4.0,2.0,2.0,3.0,4.0,4.0,4.0,4.0,3.0,4.0,4.0,4.0,4.0,2.0,5.0,4.0,6.0,3.0,5.0,2.0,3.0,99.0,5.0,3.0,4.0,99.0,4.0,99.0,4.0,2.0,5.0,5.0,4.0,4.0,2.0,4.0,4.0,2.0,3.0,3.0,4.0,5.0,1.0,,6.0,5.0,4.0,6.0,6.0,4.0,6.0,6.0,6.0,5.0,2.0,5.0,4.0,1.0,4.0,4.0,3.0,4.0,5.0,3.0,2.0,4.0,4.0,4.0,1.0,3.0,,2.0,4.0,4.0,4.0,3.0,1.0,,2.9,3.0,3.666667,3.333333,4.0,4.666667,5.0,5.4
63397,1000,2020-04-02 22:42:59,EN,36,Other/would rather not say,"College degree, bachelor, master",College degree,Full time employed,United States,no,Minnesota,Married/cohabiting,2.0,Yes,Isolated,1.0,2.0,,Program D,No,2.0,5.0,5.0,2.0,4.0,4.0,5.0,1.0,3.0,2.0,1.0,3.0,1.0,2.0,5.0,,,,,,,6.0,6.0,6.0,6.0,4.0,0.0,2.0,3.0,3.0,1.0,1.0,3.0,6.0,6.0,6.0,4.0,1.0,6.0,6.0,6.0,6.0,5.0,5.0,5.0,4.0,5.0,6.0,99.0,6.0,4.0,5.0,5.0,2.0,1.0,4.0,4.0,6.0,5.0,4.0,6.0,5.0,5.0,2.0,4.0,2.0,2.0,2.0,4.0,3.0,5.0,1.0,I am afraid that I am not preparing enough for the possibility of social and economic collapse.  I am afraid my family will not be safe.,5.0,5.0,5.0,5.0,4.0,5.0,5.0,5.0,5.0,5.0,4.0,4.0,6.0,2.0,4.0,1.0,4.0,4.0,2.0,3.0,5.0,4.0,1.0,6.0,1.0,4.0,,6.0,2.0,6.0,6.0,6.0,1.0,I am in many ways happier than I have ever been.  I feel like I was always meant to live in this level of Social distance.  I get to be with my children all day every day and I dont have to be around adults as much.,3.3,1.666667,4.333333,2.0,6.0,4.0,4.0,4.9
63417,974,2020-04-02 22:27:04,EN,70,Female,"College degree, bachelor, master",College degree,Retired,United States,yes,AZ,Divorced/widowed,3.0,Yes,Life carries on with minor changes,1.0,0.0,,Program D,No,3.0,3.0,1.0,5.0,3.0,1.0,5.0,4.0,2.0,3.0,3.0,2.0,2.0,8.0,9.0,1.0,10.0,10.0,9.0,10.0,1.0,1.0,1.0,1.0,1.0,1.0,0.0,5.0,5.0,2.0,1.0,1.0,5.0,5.0,2.0,5.0,3.0,2.0,5.0,4.0,6.0,6.0,1.0,5.0,6.0,5.0,1.0,5.0,99.0,1.0,99.0,99.0,4.0,3.0,5.0,6.0,99.0,5.0,6.0,6.0,6.0,6.0,99.0,2.0,4.0,2.0,2.0,5.0,2.0,1.0,6.0,99.0,,6.0,5.0,5.0,6.0,6.0,2.0,4.0,6.0,2.0,6.0,1.0,5.0,5.0,,,4.0,1.0,1.0,6.0,5.0,4.0,4.0,,3.0,6.0,1.0,,1.0,2.0,1.0,2.0,2.0,1.0,I live with two teenagers who don't believe in social distancing.,2.0,2.333333,3.0,2.333333,5.333333,5.666667,5.333333,4.8
63453,173,2020-04-03 21:51:14,LT,38,Female,"College degree, bachelor, master",College degree,Full time employed,United States,yes,,Married/cohabiting,1.0,Yes,Life carries on with minor changes,1.0,1.0,,Program D,,,,,,,,,,,,,,,,,,,,,,,,,,,,,,,,,,,,,,,,,,,,,,,,,,,,,,,,,,,,,,,,,,,,,,,,,,,,,,,,,,,,,,,,,,,,,,,,,,,,,,,,,,,,,,,,,,,,
63463,1325,2020-04-02 22:00:36,EN,68,Female,"College degree, bachelor, master",Some College or equivalent,Retired,United States,no,Pennsylvania,Married/cohabiting,0.0,Yes,Isolated,1.0,0.0,Program A,,No,2.0,2.0,3.0,5.0,4.0,2.0,4.0,5.0,2.0,2.0,1.0,2.0,3.0,6.0,9.0,6.0,9.0,6.0,5.0,6.0,5.0,4.0,4.0,5.0,5.0,5.0,0.0,6.0,5.0,5.0,2.0,2.0,2.0,5.0,2.0,6.0,4.0,4.0,4.0,5.0,6.0,4.0,5.0,4.0,5.0,5.0,4.0,5.0,2.0,99.0,99.0,99.0,4.0,4.0,5.0,3.0,99.0,6.0,2.0,4.0,4.0,4.0,99.0,4.0,2.0,2.0,4.0,5.0,2.0,2.0,5.0,4.0,,6.0,6.0,6.0,6.0,6.0,6.0,6.0,6.0,6.0,6.0,5.0,6.0,5.0,5.0,5.0,5.0,1.0,1.0,5.0,5.0,5.0,5.0,5.0,5.0,6.0,5.0,,5.0,6.0,6.0,4.0,5.0,4.0,"Our local government officials (governor and local leaders of the state, commissioners of our county) very good and on top of the crisis for our state and local area. Our national governments response is at best a joke and frankly quite scary, except for Dr. Fauci, who has been the only saving grace.",1.9,2.0,2.666667,3.666667,5.0,3.666667,4.333333,6.0
63464,1444,2020-04-02 22:01:51,EN,49,Female,"Some College, short continuing education or equivalent",Some College or equivalent,Not employed,United States,no,,Married/cohabiting,1.0,Not sure,Life carries on with minor changes,1.0,1.0,Program B,,No,2.0,2.0,3.0,5.0,4.0,2.0,5.0,4.0,2.0,2.0,2.0,1.0,1.0,7.0,9.0,6.0,8.0,8.0,4.0,8.0,7.0,5.0,5.0,5.0,6.0,6.0,7.0,4.0,6.0,6.0,2.0,3.0,2.0,4.0,3.0,5.0,6.0,6.0,2.0,5.0,5.0,4.0,2.0,5.0,6.0,3.0,4.0,6.0,4.0,2.0,4.0,3.0,4.0,3.0,4.0,2.0,2.0,6.0,4.0,6.0,6.0,4.0,3.0,4.0,3.0,2.0,2.0,5.0,5.0,4.0,4.0,6.0,,6.0,6.0,6.0,6.0,6.0,6.0,6.0,6.0,6.0,6.0,4.0,5.0,5.0,4.0,4.0,4.0,2.0,2.0,5.0,4.0,4.0,4.0,4.0,6.0,5.0,4.0,,5.0,5.0,6.0,4.0,4.0,3.0,,1.9,1.333333,3.0,5.666667,4.666667,5.333333,4.0,6.0
63476,869,2020-04-02 21:43:16,EN,29,Female,"College degree, bachelor, master",Some College or equivalent,Full time employed,United States,no,MN,Single,0.0,Yes,Life carries on with minor changes,1.0,0.0,,Program D,No,4.0,3.0,5.0,4.0,3.0,1.0,4.0,3.0,3.0,2.0,3.0,2.0,3.0,6.0,8.0,2.0,,4.0,1.0,5.0,1.0,5.0,5.0,5.0,6.0,6.0,0.0,5.0,5.0,5.0,2.0,1.0,5.0,4.0,3.0,3.0,5.0,5.0,2.0,4.0,4.0,4.0,4.0,3.0,4.0,6.0,2.0,5.0,2.0,5.0,99.0,5.0,6.0,2.0,99.0,4.0,99.0,6.0,5.0,6.0,6.0,5.0,4.0,3.0,2.0,3.0,3.0,2.0,2.0,2.0,6.0,5.0,,6.0,6.0,6.0,6.0,6.0,6.0,6.0,6.0,6.0,6.0,2.0,2.0,5.0,2.0,4.0,2.0,4.0,4.0,5.0,2.0,6.0,5.0,2.0,4.0,6.0,2.0,,5.0,6.0,2.0,4.0,5.0,2.0,,2.8,2.666667,3.666667,5.0,4.0,3.333333,5.333333,6.0
63491,1088,2020-04-02 21:35:50,EN,55,Female,PhD/Doctorate,College degree,Full time employed,United States,no,Washington,Divorced/widowed,1.0,Yes,Life carries on with minor changes,1.0,0.0,,Program C,Not sure,3.0,3.0,3.0,3.0,2.0,3.0,3.0,3.0,3.0,3.0,3.0,3.0,3.0,7.0,7.0,6.0,6.0,7.0,7.0,7.0,4.0,6.0,6.0,6.0,5.0,5.0,0.0,4.0,5.0,5.0,2.0,2.0,2.0,3.0,2.0,5.0,4.0,3.0,4.0,2.0,5.0,2.0,4.0,5.0,4.0,4.0,2.0,5.0,6.0,6.0,6.0,4.0,4.0,3.0,2.0,2.0,99.0,5.0,5.0,5.0,5.0,4.0,4.0,2.0,2.0,4.0,2.0,3.0,4.0,4.0,3.0,2.0,Lack of access to court tans delays in fixing ongoing legal issues affecting my daughter.,4.0,4.0,3.0,5.0,4.0,5.0,3.0,5.0,5.0,5.0,2.0,2.0,4.0,3.0,3.0,3.0,3.0,2.0,4.0,4.0,3.0,3.0,3.0,3.0,4.0,2.0,,3.0,4.0,4.0,4.0,4.0,4.0,Closing courts has been a challenge,3.1,3.0,2.333333,3.333333,3.0,4.0,4.666667,4.3
63504,281,2020-04-03 21:17:31,LT,39,Female,"College degree, bachelor, master",College degree,Part time employed,United States,yes,Georgia,Married/cohabiting,1.0,No,Isolated,3.0,1.0,,Program D,,,,,,,,,,,,,,,,,,,,,,,,,,,,,,,,,,,,,,,,,,,,,,,,,,,,,,,,,,,,,,,,,,,,,,,,,,,,,,,,,,,,,,,,,,,,,,,,,,,,,,,,,,,,,,,,,,,,
63509,1204,2020-04-02 21:31:34,EN,52,Female,"College degree, bachelor, master",Some College or equivalent,Full time employed,United States,no,MI,Single,0.0,Yes,Isolated,0.0,0.0,,Program D,No,2.0,3.0,4.0,4.0,3.0,2.0,3.0,3.0,4.0,1.0,5.0,3.0,3.0,4.0,7.0,1.0,1.0,2.0,5.0,5.0,,4.0,4.0,5.0,5.0,5.0,1.0,3.0,5.0,5.0,5.0,3.0,4.0,4.0,3.0,3.0,4.0,3.0,3.0,6.0,6.0,6.0,3.0,5.0,6.0,3.0,2.0,5.0,2.0,2.0,99.0,5.0,3.0,4.0,1.0,99.0,99.0,6.0,5.0,5.0,5.0,5.0,1.0,2.0,1.0,4.0,3.0,5.0,2.0,2.0,6.0,6.0,"I am really worried about even stricter restrictions that don't consider outlying situations or make daily life even more difficult.  IE, a curfew would extremely limit my ability to get food for myself, or exercise.  Worried about how long this will go on for and if enough people end up very poor will people will freak out and riot.   I am actually at least as worried about this as the virus. And I worry about the mental health of people trapped inside at home a lot, especially those that can't self entertain.  I feel lucky that I am very good at that and have indoor hobbies to entertain myself, but I don't know how long I can deal with never seeing people.",6.0,6.0,5.0,6.0,6.0,6.0,6.0,6.0,6.0,6.0,3.0,3.0,5.0,2.0,3.0,4.0,1.0,1.0,3.0,4.0,4.0,3.0,5.0,6.0,1.0,4.0,"I have to balance between being informed, and all the fear and fear mongering on social media.  I like to read very scientific articles, and it's been helping reading books about contagious. (I know right?)",5.0,5.0,4.0,3.0,3.0,4.0,,2.7,3.666667,3.666667,3.666667,6.0,5.0,4.333333,5.9
63510,1110,2020-04-02 21:28:31,EN,34,Female,"College degree, bachelor, master",College degree,Full time employed,United States,no,Minnesota,Married/cohabiting,2.0,Yes,Life carries on with minor changes,1.0,2.0,Program A,,No,3.0,3.0,5.0,3.0,2.0,5.0,3.0,3.0,3.0,3.0,3.0,3.0,4.0,8.0,9.0,1.0,2.0,4.0,3.0,6.0,2.0,5.0,5.0,3.0,4.0,5.0,3.0,5.0,4.0,4.0,3.0,3.0,2.0,4.0,6.0,5.0,6.0,6.0,2.0,4.0,1.0,3.0,2.0,6.0,6.0,6.0,3.0,5.0,3.0,6.0,6.0,3.0,3.0,4.0,3.0,3.0,4.0,5.0,4.0,4.0,5.0,3.0,4.0,6.0,6.0,5.0,6.0,5.0,2.0,3.0,4.0,2.0,,6.0,6.0,4.0,5.0,5.0,5.0,6.0,6.0,3.0,5.0,4.0,1.0,5.0,4.0,6.0,5.0,1.0,4.0,3.0,,3.0,5.0,6.0,3.0,3.0,5.0,,6.0,6.0,6.0,4.0,5.0,2.0,,3.5,3.333333,4.0,5.666667,2.666667,5.666667,5.0,5.1
63527,761,2020-04-03 21:14:42,PL,39,Female,"Some College, short continuing education or equivalent",Up to 12 years of school,Not employed,United States,yes,,Married/cohabiting,1.0,Yes,Isolated,1.0,1.0,,Program D,No,3.0,4.0,4.0,3.0,2.0,3.0,3.0,2.0,2.0,4.0,4.0,3.0,5.0,7.0,9.0,5.0,10.0,10.0,10.0,10.0,5.0,6.0,5.0,6.0,6.0,6.0,0.0,6.0,6.0,6.0,4.0,3.0,5.0,4.0,4.0,3.0,3.0,1.0,5.0,3.0,6.0,3.0,2.0,4.0,6.0,4.0,4.0,4.0,6.0,99.0,4.0,99.0,5.0,4.0,1.0,6.0,5.0,5.0,5.0,6.0,6.0,6.0,99.0,3.0,3.0,5.0,5.0,4.0,2.0,2.0,5.0,5.0,,5.0,4.0,4.0,4.0,5.0,4.0,4.0,5.0,4.0,4.0,,,5.0,2.0,5.0,5.0,,3.0,5.0,,,4.0,,6.0,1.0,4.0,,5.0,4.0,4.0,4.0,4.0,4.0,,3.4,4.0,4.0,2.0,4.0,5.0,3.666667,4.3
63538,1165,2020-04-02 21:16:59,EN,67,Female,"College degree, bachelor, master",College degree,Retired,United States,no,pennsylvania,Married/cohabiting,0.0,No,Isolated,2.0,0.0,,Program D,No,1.0,2.0,2.0,5.0,3.0,1.0,5.0,4.0,1.0,1.0,1.0,1.0,1.0,6.0,6.0,7.0,8.0,10.0,9.0,8.0,0.0,5.0,5.0,5.0,6.0,6.0,0.0,6.0,6.0,6.0,1.0,4.0,3.0,6.0,2.0,5.0,6.0,5.0,2.0,6.0,6.0,6.0,1.0,2.0,5.0,6.0,2.0,6.0,99.0,99.0,99.0,99.0,1.0,3.0,5.0,1.0,99.0,6.0,1.0,4.0,4.0,1.0,3.0,3.0,99.0,1.0,1.0,1.0,4.0,1.0,5.0,3.0,,6.0,6.0,6.0,6.0,6.0,6.0,6.0,6.0,6.0,6.0,1.0,6.0,6.0,1.0,6.0,6.0,1.0,1.0,6.0,5.0,2.0,6.0,2.0,2.0,5.0,5.0,our state governor has been trustworthy but our president is not trustworthy and communicates false information,1.0,6.0,4.0,2.0,6.0,5.0,"I am grateful to be financially, psychologically, and physically safe isolated at home.",1.5,1.0,3.333333,5.333333,6.0,4.333333,5.666667,6.0
63551,960,2020-04-03 21:09:00,EN,39,Female,"College degree, bachelor, master",College degree,Not employed,United States,no,NY,Single,0.0,Yes,Isolated,0.0,0.0,Program A,,No,5.0,4.0,5.0,5.0,3.0,3.0,3.0,3.0,5.0,3.0,4.0,3.0,4.0,9.0,9.0,6.0,8.0,8.0,8.0,5.0,4.0,6.0,6.0,6.0,6.0,6.0,3.0,6.0,6.0,5.0,4.0,4.0,4.0,4.0,3.0,5.0,6.0,4.0,2.0,4.0,5.0,2.0,3.0,5.0,6.0,5.0,2.0,4.0,6.0,3.0,99.0,6.0,3.0,6.0,99.0,99.0,99.0,6.0,2.0,6.0,6.0,5.0,99.0,3.0,2.0,5.0,6.0,99.0,3.0,4.0,5.0,6.0,"Our government response, nobody cares",6.0,5.0,6.0,6.0,6.0,6.0,6.0,6.0,6.0,6.0,3.0,6.0,6.0,4.0,5.0,4.0,1.0,1.0,3.0,6.0,6.0,5.0,3.0,4.0,2.0,5.0,,3.0,2.0,1.0,6.0,5.0,2.0,Perception of class. Respect for private sector.,3.5,3.666667,3.0,5.0,3.666667,5.0,4.666667,5.9
63557,561,2020-04-02 20:58:36,EN,37,Female,"College degree, bachelor, master",PhD/Doctorate,Part time employed,United States,no,Minnesota,Married/cohabiting,0.0,Yes,Isolated,1.0,0.0,,Program D,No,4.0,4.0,5.0,4.0,3.0,3.0,3.0,2.0,4.0,4.0,3.0,3.0,5.0,3.0,7.0,2.0,5.0,7.0,5.0,8.0,2.0,4.0,5.0,4.0,6.0,6.0,0.0,5.0,5.0,5.0,5.0,4.0,4.0,6.0,6.0,5.0,5.0,3.0,6.0,5.0,4.0,6.0,3.0,4.0,5.0,5.0,2.0,5.0,2.0,5.0,99.0,2.0,5.0,5.0,4.0,4.0,99.0,6.0,5.0,4.0,4.0,4.0,6.0,5.0,4.0,5.0,5.0,4.0,4.0,4.0,6.0,2.0,,4.0,4.0,5.0,4.0,5.0,5.0,5.0,5.0,5.0,4.0,3.0,3.0,5.0,4.0,5.0,4.0,4.0,4.0,5.0,4.0,5.0,4.0,5.0,4.0,5.0,2.0,,2.0,6.0,5.0,3.0,6.0,5.0,,3.6,3.666667,4.666667,3.0,5.0,4.333333,5.0,4.6
63559,1699,2020-04-02 21:16:16,EN,42,Female,"College degree, bachelor, master",College degree,Not employed,United States,no,Minnesota,Single,0.0,Yes,Isolated,0.0,0.0,,,,5.0,3.0,5.0,3.0,2.0,5.0,3.0,2.0,2.0,4.0,4.0,5.0,5.0,7.0,10.0,4.0,5.0,5.0,1.0,6.0,1.0,6.0,6.0,6.0,6.0,5.0,1.0,2.0,4.0,5.0,6.0,2.0,2.0,5.0,5.0,3.0,5.0,2.0,4.0,5.0,6.0,6.0,3.0,6.0,5.0,3.0,1.0,5.0,5.0,99.0,99.0,6.0,6.0,6.0,4.0,99.0,99.0,6.0,6.0,6.0,5.0,6.0,99.0,6.0,4.0,6.0,6.0,4.0,3.0,4.0,6.0,99.0,My mental and physical health are tenuous. I want to be hopeful. But I wonder how much more social distancing I can take without a significant mental breakdown and degraded chronic illness.,6.0,6.0,5.0,5.0,5.0,4.0,6.0,6.0,5.0,4.0,1.0,5.0,6.0,4.0,6.0,6.0,1.0,1.0,4.0,6.0,2.0,4.0,4.0,6.0,6.0,6.0,"Meditation is saving my life, my meditation community is keeping me going.",4.0,4.0,,3.0,6.0,4.0,"While there is so much fear and uncertainty, I've noticed an uptick of gratitude and appreciation for the positive things in my life. The little things, a birds song, a beautiful flower, the laugh of a friend. I want to love everyone up...then something triggers past trauma, and it's anger and anxiety. Been having more panic attacks. Using all the tools from therapy. Agoraphobia is starting to set it. I grieve. I cry. I send loving kindness and compassion to the world. I forget to eat. I get mad at Trump and his idiocy. I can't make future plans. I feel adrift. Do I find work outside of my field or risk getting sick. With Asthma, will I die? Will I be bankrupt? Will we ever get to gather in crowds again?!? Will the theater professions survive? So much uncertainty and suffering...I want to put as much kindness and compassion back into the world as possible.",3.8,4.666667,4.666667,3.333333,5.666667,5.0,4.666667,5.2
63565,7336,2020-04-02 22:46:05,EN,66,Female,"College degree, bachelor, master",Some College or equivalent,Self-employed,United States,no,Washington,Divorced/widowed,0.0,Yes,Isolated,2.0,0.0,Program A,,No,2.0,3.0,3.0,5.0,3.0,3.0,5.0,4.0,2.0,2.0,2.0,3.0,3.0,8.0,9.0,7.0,,9.0,7.0,10.0,5.0,5.0,6.0,6.0,5.0,5.0,3.0,6.0,6.0,6.0,4.0,5.0,4.0,4.0,4.0,4.0,5.0,6.0,2.0,6.0,5.0,4.0,4.0,6.0,5.0,3.0,3.0,5.0,4.0,4.0,99.0,99.0,99.0,4.0,4.0,2.0,99.0,3.0,4.0,4.0,5.0,5.0,99.0,3.0,2.0,99.0,4.0,2.0,3.0,2.0,5.0,3.0,This has the potential of bringing about serious positive social change - or the exact opposite  that causes me a lot of stress.,6.0,5.0,5.0,6.0,6.0,6.0,6.0,6.0,6.0,6.0,,5.0,6.0,,6.0,,2.0,2.0,4.0,5.0,5.0,3.0,5.0,4.0,5.0,4.0,Dedication to following WHO and health care professional's & Fauci's advice. Not the White House.,4.0,6.0,6.0,5.0,5.0,5.0,"Hearing positive efforts made by  many business owners encourages me. Hearing the way Amazon, Boeing, and some other large institutions treats their employees is very discouraging. Hearing fossil fuel industry is lobbying for more help than they already get from federal gov't is appalling, and that they are likely being listened to is equally appalling. We as a nation and as world's citizens have the chance to make things more equal, healthier for all. And I am concerned that greed will rule the day. I was terribly distressed to hear responses by Jeff Bezos and other uber wealthy folks expressing the attitude that people are expendable.",2.2,2.666667,3.666667,5.333333,5.0,4.666667,4.0,5.8
63590,912,2020-04-02 20:42:34,EN,37,Female,"College degree, bachelor, master",College degree,Full time employed,United States,no,minnesota,Single,0.0,Yes,Isolated,0.0,0.0,Program A,,No,5.0,5.0,5.0,1.0,1.0,5.0,1.0,1.0,5.0,5.0,5.0,5.0,5.0,5.0,6.0,0.0,0.0,1.0,1.0,8.0,0.0,5.0,5.0,5.0,6.0,6.0,0.0,6.0,5.0,6.0,5.0,2.0,2.0,5.0,5.0,4.0,4.0,2.0,5.0,6.0,6.0,6.0,2.0,4.0,5.0,3.0,3.0,4.0,99.0,6.0,99.0,2.0,6.0,5.0,5.0,99.0,99.0,4.0,6.0,4.0,4.0,2.0,6.0,6.0,2.0,6.0,6.0,99.0,3.0,1.0,6.0,1.0,How people who are oppressed/homeless/with disabilities are going to be impacted/harmed/killed,4.0,5.0,3.0,4.0,5.0,4.0,5.0,5.0,4.0,3.0,2.0,2.0,2.0,2.0,4.0,4.0,4.0,1.0,4.0,4.0,2.0,3.0,4.0,4.0,4.0,2.0,,5.0,6.0,5.0,3.0,6.0,2.0,"My mental health has been very poor, and I am afraid about my own health and how to get help when everything is closed and clinics are limiting who comes in.",5.0,5.0,4.333333,2.666667,6.0,4.666667,3.666667,4.2
63611,963,2020-04-02 20:27:09,EN,62,Female,"Some College, short continuing education or equivalent",Some College or equivalent,Part time employed,United States,no,Oregon,Married/cohabiting,0.0,Yes,Isolated,1.0,0.0,Program A,,Not sure,2.0,4.0,4.0,1.0,3.0,3.0,2.0,3.0,2.0,3.0,1.0,1.0,3.0,8.0,9.0,0.0,8.0,3.0,10.0,10.0,0.0,6.0,6.0,6.0,6.0,6.0,0.0,4.0,6.0,6.0,1.0,1.0,2.0,4.0,4.0,3.0,5.0,5.0,5.0,4.0,6.0,1.0,1.0,5.0,6.0,3.0,4.0,6.0,6.0,2.0,99.0,99.0,6.0,4.0,1.0,6.0,99.0,6.0,3.0,5.0,6.0,6.0,4.0,6.0,2.0,5.0,1.0,5.0,6.0,2.0,6.0,99.0,,6.0,5.0,1.0,5.0,1.0,5.0,5.0,5.0,5.0,6.0,1.0,4.0,6.0,5.0,6.0,3.0,6.0,6.0,4.0,5.0,6.0,5.0,6.0,5.0,6.0,1.0,,1.0,1.0,1.0,4.0,1.0,4.0,,3.3,1.666667,4.0,4.0,3.666667,5.666667,4.0,4.4
63630,779,2020-04-03 20:15:57,BG,47,Female,"College degree, bachelor, master",Up to 12 years of school,Full time employed,United States,yes,Califirnia,Single,1.0,Yes,Isolated,1.0,1.0,Program A,,Not sure,2.0,4.0,3.0,4.0,2.0,3.0,2.0,1.0,4.0,4.0,3.0,3.0,4.0,2.0,9.0,1.0,7.0,2.0,8.0,3.0,6.0,5.0,5.0,5.0,5.0,6.0,,2.0,5.0,6.0,4.0,2.0,3.0,4.0,4.0,,,2.0,4.0,2.0,,4.0,,,,,,,,,,,,,,,,,,,,,,,,,,,,,,,,,,,,,,,,,,,,,,,,,,,,,,,,,,,,,,,,,,3.5,3.333333,4.0,2.5,3.0,,,
63647,606,2020-04-03 20:05:38,EN,55,Female,"Some College, short continuing education or equivalent",Up to 12 years of school,Full time employed,United States,no,New York,Married/cohabiting,0.0,Yes,Isolated,1.0,0.0,,,,2.0,3.0,4.0,5.0,4.0,1.0,5.0,4.0,2.0,1.0,3.0,2.0,3.0,7.0,8.0,3.0,7.0,10.0,8.0,8.0,2.0,4.0,6.0,4.0,5.0,5.0,0.0,5.0,6.0,6.0,2.0,4.0,4.0,3.0,3.0,4.0,5.0,3.0,5.0,5.0,6.0,4.0,3.0,5.0,5.0,4.0,2.0,5.0,,,,,,,,,,,,,,,,,,,,,,,,,,,,,,,,,,,,,,,,,,,,,,,,,,,,,,,,,,,,1.9,2.666667,3.0,3.333333,5.0,4.666667,4.666667,
63674,896,2020-04-02 19:58:28,EN,44,Female,PhD/Doctorate,College degree,Full time employed,United States,no,maine,Married/cohabiting,2.0,Not sure,Life carries on with minor changes,1.0,2.0,Program A,,Yes,3.0,4.0,5.0,4.0,2.0,3.0,3.0,1.0,4.0,3.0,3.0,2.0,2.0,6.0,9.0,6.0,6.0,7.0,8.0,9.0,2.0,4.0,5.0,4.0,6.0,6.0,3.0,4.0,2.0,2.0,3.0,4.0,4.0,4.0,4.0,5.0,3.0,3.0,4.0,4.0,5.0,5.0,4.0,5.0,5.0,3.0,3.0,5.0,1.0,6.0,4.0,2.0,5.0,5.0,2.0,4.0,6.0,6.0,3.0,5.0,5.0,4.0,1.0,3.0,2.0,3.0,1.0,2.0,5.0,4.0,5.0,2.0,,4.0,5.0,5.0,4.0,5.0,4.0,5.0,5.0,4.0,5.0,5.0,5.0,4.0,1.0,4.0,5.0,1.0,4.0,4.0,3.0,4.0,4.0,3.0,5.0,3.0,5.0,Guilt about not helping others and still feeling like I'm just getting a handle on how to do this in my own nuclear family and immediate personal world.,2.0,5.0,3.0,2.0,5.0,3.0,,3.6,2.333333,3.333333,3.0,4.666667,4.333333,4.0,4.6
63726,321,2020-04-03 19:24:46,KO,29,Female,PhD/Doctorate,College degree,Student,United States,yes,<U+B274><U+C695>,Single,0.0,Yes,Isolated,1.0,0.0,,Program D,Not sure,5.0,2.0,5.0,2.0,2.0,4.0,2.0,2.0,5.0,4.0,4.0,4.0,5.0,3.0,7.0,2.0,4.0,8.0,9.0,4.0,7.0,5.0,6.0,4.0,6.0,4.0,6.0,5.0,6.0,6.0,6.0,4.0,5.0,,,,,,,,,,,,,,,,,,,,,,,,,,,,,,,,,,,,,,,,,,,,,,,,,,,,,,,,,,,,,,,,,,,,,,,,,,,4.1,4.333333,,,,,,
63738,952,2020-04-02 19:30:12,EN,47,Female,"College degree, bachelor, master",PhD/Doctorate,Not employed,United States,no,GA,Married/cohabiting,2.0,Yes,Isolated,2.0,1.0,Program A,,No,3.0,3.0,3.0,5.0,3.0,2.0,2.0,5.0,3.0,1.0,3.0,1.0,3.0,6.0,9.0,0.0,2.0,3.0,3.0,1.0,0.0,5.0,6.0,6.0,6.0,6.0,0.0,6.0,6.0,6.0,1.0,3.0,5.0,6.0,3.0,6.0,4.0,2.0,5.0,6.0,6.0,6.0,2.0,6.0,6.0,6.0,5.0,5.0,99.0,4.0,5.0,99.0,5.0,1.0,99.0,5.0,1.0,6.0,6.0,4.0,6.0,,2.0,1.0,1.0,5.0,3.0,1.0,1.0,1.0,6.0,99.0,"My country seems to have degenerated into frightening corruption and incompetence| some of it I know has just been revealed, however, the racism and callusness is terrifying.",6.0,6.0,6.0,6.0,6.0,6.0,6.0,6.0,6.0,6.0,1.0,4.0,6.0,1.0,2.0,6.0,,1.0,1.0,5.0,5.0,1.0,5.0,6.0,4.0,6.0,,3.0,6.0,6.0,1.0,6.0,5.0,"We are asked to shelter in place, to protect ourselves and everyone, and how can we do this, when the way we have earned a living is gone, not to return for an amount of time that remains unknown? We have enough now, but the future is unknown: our supply chains are fragile, our government and corporations unreliable and deeply corrupt. How can I rest, knowing that others suffer without food, shelter or healthcare? And above all this: global climate catastrophe.",2.4,2.333333,3.333333,2.666667,6.0,5.666667,4.333333,6.0
63743,751,2020-04-02 19:25:08,EN,36,Female,"College degree, bachelor, master",College degree,Full time employed,United States,no,Massachusetts,Married/cohabiting,2.0,No,Isolated,1.0,2.0,Program A,,No,2.0,3.0,5.0,3.0,2.0,3.0,4.0,2.0,4.0,3.0,1.0,1.0,4.0,5.0,8.0,1.0,4.0,4.0,5.0,6.0,0.0,5.0,5.0,5.0,5.0,5.0,0.0,6.0,6.0,6.0,4.0,2.0,3.0,4.0,4.0,4.0,5.0,3.0,4.0,6.0,4.0,5.0,2.0,4.0,5.0,6.0,1.0,6.0,4.0,6.0,6.0,3.0,5.0,4.0,1.0,2.0,5.0,6.0,4.0,5.0,6.0,5.0,2.0,2.0,4.0,2.0,5.0,2.0,5.0,3.0,5.0,2.0,,4.0,5.0,5.0,4.0,5.0,4.0,5.0,6.0,5.0,5.0,3.0,2.0,5.0,5.0,4.0,2.0,1.0,1.0,5.0,4.0,4.0,2.0,4.0,4.0,1.0,5.0,,4.0,6.0,6.0,4.0,3.0,5.0,"Husband is a doctor. I work full time. The stress of him infecting us while trying to homeschool two kids, maintain a house and work full time is near impossible. Further America will never be the same and should never be the same - this pandemic uncovered the dysfunction and deterioration of a once great nation. This administration will go down in history for taking down the USA.",3.3,2.0,3.666667,3.666667,5.0,4.666667,6.0,4.8
63744,1389,2020-04-02 19:35:29,ZH-T,61,Female,PhD/Doctorate,,Full time employed,United States,no,<U+9EBB><U+5DDE>,Married/cohabiting,0.0,Not sure,Life carries on with minor changes,1.0,0.0,Program B,,Not sure,2.0,2.0,2.0,4.0,4.0,3.0,3.0,4.0,2.0,2.0,2.0,2.0,2.0,4.0,4.0,4.0,5.0,5.0,5.0,7.0,5.0,3.0,4.0,3.0,4.0,4.0,5.0,5.0,4.0,4.0,4.0,5.0,2.0,3.0,3.0,4.0,2.0,2.0,5.0,3.0,5.0,4.0,2.0,5.0,3.0,4.0,4.0,4.0,2.0,2.0,5.0,6.0,4.0,4.0,1.0,4.0,99.0,5.0,3.0,4.0,2.0,4.0,3.0,2.0,2.0,3.0,4.0,4.0,4.0,2.0,3.0,4.0,,4.0,4.0,4.0,4.0,4.0,3.0,4.0,4.0,3.0,4.0,4.0,3.0,5.0,5.0,5.0,5.0,2.0,4.0,5.0,5.0,3.0,4.0,5.0,4.0,2.0,4.0,,4.0,3.0,4.0,3.0,4.0,3.0,,2.2,2.0,3.0,2.0,4.0,4.333333,3.666667,3.8
63746,612,2020-04-02 19:22:08,EN,40,Female,"College degree, bachelor, master",College degree,Full time employed,United States,no,Massachusetts,Married/cohabiting,0.0,Yes,Isolated,0.0,0.0,,Program C,No,2.0,4.0,5.0,4.0,3.0,2.0,3.0,4.0,2.0,2.0,5.0,2.0,4.0,6.0,8.0,2.0,2.0,5.0,2.0,8.0,,6.0,6.0,6.0,6.0,6.0,0.0,5.0,5.0,5.0,5.0,2.0,4.0,3.0,3.0,5.0,6.0,5.0,2.0,4.0,6.0,5.0,2.0,5.0,6.0,5.0,3.0,5.0,2.0,4.0,99.0,3.0,5.0,6.0,4.0,99.0,99.0,5.0,6.0,6.0,6.0,6.0,3.0,4.0,4.0,6.0,6.0,6.0,4.0,3.0,5.0,3.0,,5.0,6.0,6.0,5.0,6.0,6.0,6.0,6.0,6.0,5.0,1.0,2.0,5.0,2.0,4.0,4.0,3.0,2.0,5.0,4.0,3.0,4.0,4.0,4.0,5.0,2.0,,1.0,5.0,5.0,4.0,5.0,3.0,The behavior of the U.S. president has frankly terrified me.,2.7,3.666667,2.666667,5.333333,5.0,5.333333,4.666667,5.7
63751,4808,2020-04-02 20:30:39,ZH-T,58,Female,PhD/Doctorate,Up to 9 years of school,Full time employed,United States,no,Maryland,Married/cohabiting,1.0,No,Isolated,3.0,0.0,Program A,,No,1.0,1.0,1.0,5.0,4.0,1.0,5.0,5.0,1.0,1.0,1.0,1.0,1.0,7.0,10.0,6.0,10.0,10.0,10.0,5.0,9.0,3.0,3.0,4.0,3.0,4.0,0.0,5.0,5.0,5.0,2.0,5.0,2.0,2.0,2.0,4.0,3.0,4.0,3.0,3.0,6.0,3.0,2.0,4.0,4.0,4.0,1.0,4.0,2.0,2.0,4.0,2.0,2.0,2.0,3.0,2.0,2.0,4.0,2.0,2.0,2.0,2.0,2.0,2.0,1.0,2.0,2.0,2.0,4.0,2.0,2.0,2.0,,5.0,4.0,5.0,5.0,5.0,5.0,5.0,4.0,5.0,5.0,4.0,5.0,5.0,4.0,4.0,2.0,2.0,2.0,5.0,4.0,2.0,5.0,4.0,5.0,5.0,5.0,,5.0,5.0,5.0,5.0,2.0,5.0,,1.1,1.0,2.333333,3.666667,4.0,4.333333,4.666667,4.8
63759,833,2020-04-03 19:22:00,EN,58,Male,"College degree, bachelor, master",College degree,Full time employed,United States,no,California,Married/cohabiting,1.0,No,Life carries on with minor changes,3.0,0.0,,Program D,No,1.0,2.0,2.0,4.0,4.0,2.0,4.0,3.0,1.0,4.0,1.0,2.0,2.0,7.0,9.0,8.0,7.0,8.0,9.0,9.0,8.0,5.0,5.0,5.0,5.0,5.0,5.0,5.0,5.0,5.0,1.0,4.0,3.0,5.0,4.0,3.0,4.0,4.0,5.0,4.0,5.0,4.0,5.0,5.0,5.0,3.0,3.0,4.0,,,,,,,,,,,,,,,,,,,,,,,,,,,,,,,,,,,,,,,,,,,,,,,,,,,,,,,,,,,,2.1,1.666667,4.333333,3.333333,4.333333,4.0,3.666667,
63781,657,2020-04-02 19:05:10,EN,53,Female,"College degree, bachelor, master",Some College or equivalent,Full time employed,United States,no,ohio,Single,0.0,Yes,Isolated,0.0,0.0,,Program D,No,3.0,3.0,4.0,5.0,3.0,1.0,4.0,4.0,2.0,1.0,3.0,2.0,3.0,6.0,7.0,1.0,5.0,7.0,3.0,5.0,0.0,5.0,6.0,5.0,6.0,6.0,0.0,6.0,4.0,5.0,1.0,3.0,2.0,2.0,1.0,6.0,3.0,3.0,4.0,4.0,4.0,5.0,4.0,3.0,4.0,4.0,2.0,6.0,4.0,5.0,99.0,6.0,5.0,4.0,1.0,99.0,99.0,6.0,5.0,6.0,5.0,5.0,5.0,5.0,3.0,5.0,3.0,4.0,5.0,4.0,5.0,5.0,I worry about what life and the economy will be like after. Will I still be able to retire on schedule? Will my neice and nephew be able to go to school?,4.0,4.0,4.0,4.0,5.0,5.0,5.0,5.0,5.0,5.0,6.0,3.0,4.0,2.0,4.0,2.0,4.0,4.0,4.0,4.0,5.0,4.0,3.0,4.0,2.0,5.0,,5.0,3.0,5.0,2.0,2.0,1.0,"Well, my 84 year old father had a stroke, and we can't put my 83 year old mother into assisted living because they can't accept new clients. How will I care for them both if dad gets worse? My hot water heater died. I was able to get a plumber to come fix it, but if the virus gets worse, will I still be able to?",2.2,2.666667,1.333333,3.0,4.333333,3.333333,5.0,4.6
63796,597,2020-04-03 18:58:50,EN,60,Female,"Some College, short continuing education or equivalent",Some College or equivalent,Self-employed,United States,no,Indiana,Married/cohabiting,1.0,Yes,Isolated,3.0,1.0,,Program D,No,5.0,5.0,5.0,3.0,3.0,2.0,3.0,2.0,5.0,1.0,1.0,2.0,3.0,4.0,6.0,1.0,4.0,6.0,2.0,9.0,,6.0,6.0,6.0,6.0,6.0,,5.0,6.0,6.0,2.0,1.0,4.0,5.0,4.0,4.0,6.0,5.0,1.0,6.0,6.0,4.0,2.0,4.0,5.0,6.0,1.0,6.0,,,,,,,,,,,,,,,,,,,,,,,,,,,,,,,,,,,,,,,,,,,,,,,,,,,,,,,,,,,,3.6,2.0,4.0,5.666667,5.333333,4.666667,6.0,
63825,1909,2020-04-03 19:04:22,SME,28,Female,"College degree, bachelor, master",College degree,Full time employed,United States,yes,Ohio,Single,0.0,Yes,Isolated,0.0,0.0,,Program C,No,2.0,3.0,3.0,4.0,4.0,3.0,5.0,2.0,3.0,3.0,2.0,2.0,3.0,3.0,4.0,3.0,3.0,3.0,4.0,8.0,2.0,5.0,6.0,5.0,5.0,5.0,0.0,6.0,5.0,5.0,2.0,4.0,4.0,4.0,3.0,5.0,6.0,5.0,5.0,5.0,5.0,6.0,2.0,5.0,5.0,6.0,2.0,5.0,,,,,,,,,,,,,,,,,,,,,,,,,,,,,,,,,,,,,,,,,,,,,,,,,,,,,,,,,,,,2.6,2.333333,3.0,4.333333,5.333333,5.0,5.333333,
63835,1259,2020-04-02 18:48:51,SME,27,Female,Up to 12 years of school,Up to 6 years of school,Not employed,United States,yes,Oklahoma,Married/cohabiting,2.0,Yes,Life carries on with minor changes,1.0,2.0,Program A,,No,3.0,2.0,3.0,4.0,3.0,4.0,4.0,3.0,2.0,1.0,2.0,1.0,3.0,8.0,10.0,6.0,9.0,8.0,9.0,9.0,8.0,5.0,6.0,6.0,6.0,6.0,3.0,6.0,6.0,6.0,1.0,3.0,3.0,4.0,4.0,5.0,4.0,4.0,5.0,4.0,5.0,4.0,2.0,4.0,5.0,5.0,1.0,5.0,4.0,4.0,6.0,6.0,4.0,5.0,4.0,5.0,5.0,3.0,5.0,6.0,4.0,6.0,5.0,3.0,3.0,2.0,6.0,3.0,4.0,4.0,5.0,4.0,,5.0,5.0,5.0,5.0,5.0,5.0,5.0,5.0,5.0,5.0,5.0,5.0,5.0,5.0,5.0,5.0,5.0,5.0,5.0,5.0,5.0,5.0,5.0,5.0,5.0,5.0,,4.0,4.0,5.0,4.0,5.0,5.0,,2.5,2.0,3.333333,3.333333,4.333333,4.666667,5.333333,5.0
63868,515,2020-04-02 18:21:45,EN,55,Female,"College degree, bachelor, master",Up to 9 years of school,Full time employed,United States,yes,California,Divorced/widowed,1.0,Yes,Life carries on with minor changes,1.0,0.0,,Program C,No,1.0,1.0,1.0,5.0,5.0,1.0,5.0,5.0,1.0,1.0,1.0,1.0,2.0,9.0,9.0,4.0,2.0,1.0,1.0,2.0,1.0,2.0,3.0,3.0,3.0,3.0,5.0,5.0,6.0,5.0,2.0,5.0,3.0,6.0,3.0,5.0,5.0,5.0,3.0,6.0,6.0,6.0,1.0,6.0,6.0,5.0,1.0,6.0,1.0,1.0,4.0,2.0,1.0,2.0,1.0,2.0,99.0,3.0,1.0,2.0,1.0,1.0,2.0,1.0,1.0,2.0,2.0,2.0,2.0,1.0,2.0,1.0,,6.0,6.0,6.0,6.0,6.0,6.0,6.0,6.0,6.0,6.0,2.0,5.0,1.0,5.0,2.0,4.0,1.0,1.0,3.0,5.0,1.0,4.0,5.0,6.0,6.0,3.0,,4.0,4.0,4.0,4.0,4.0,4.0,,1.0,1.333333,3.666667,4.666667,6.0,6.0,5.666667,6.0
63910,3396,2020-04-02 18:55:49,EN,55,Female,"College degree, bachelor, master",PhD/Doctorate,Full time employed,United States,no,"Connecticut, Westport",Married/cohabiting,4.0,Yes,Isolated,2.0,2.0,,,,3.0,3.0,5.0,3.0,3.0,2.0,5.0,3.0,3.0,2.0,5.0,3.0,5.0,2.0,8.0,3.0,5.0,8.0,5.0,5.0,3.0,6.0,6.0,6.0,6.0,6.0,0.0,6.0,6.0,6.0,2.0,1.0,4.0,6.0,5.0,5.0,6.0,6.0,4.0,5.0,6.0,6.0,2.0,6.0,6.0,6.0,1.0,6.0,2.0,3.0,6.0,6.0,6.0,4.0,1.0,5.0,5.0,6.0,6.0,6.0,6.0,6.0,3.0,3.0,2.0,6.0,5.0,2.0,6.0,2.0,6.0,2.0,I leave in a hot spot right know. The fact that we have not been able to control the spread. The inability to have a vaccine or even a medication stressed us the most. Our hospitals are full and there is not enough ventilators. The fact that we need to get out to buy groceries or pick up medicine stress,4.0,5.0,2.0,1.0,5.0,5.0,5.0,6.0,5.0,4.0,5.0,5.0,5.0,5.0,6.0,2.0,1.0,1.0,6.0,5.0,6.0,5.0,5.0,5.0,5.0,5.0,,6.0,2.0,1.0,2.0,2.0,1.0,"My family health, the uncertainty of keeping my job and the medical insurance.",2.8,4.333333,4.333333,5.0,5.666667,5.666667,6.0,4.2
63934,1605,2020-04-03 18:15:09,EN,21,Male,"Some College, short continuing education or equivalent",College degree,Student,United States,no,Minnesota,Single,0.0,Yes,Life carries on with minor changes,4.0,0.0,Program B,,No,2.0,1.0,3.0,4.0,3.0,2.0,2.0,3.0,2.0,2.0,1.0,3.0,1.0,4.0,7.0,3.0,5.0,5.0,5.0,5.0,3.0,3.0,4.0,4.0,5.0,6.0,4.0,,,,,,,,,,,,,,,,,,,,,,,,,,,,,,,,,,,,,,,,,,,,,,,,,,,,,,,,,,,,,,,,,,,,,,,,,,,,,,,,,2.4,1.666667,,,,,,
63955,1078,2020-04-02 17:58:11,ZH-T,58,Female,PhD/Doctorate,Some College or equivalent,Full time employed,United States,no,"Orange County, CA",Married/cohabiting,0.0,Yes,Life carries on with minor changes,,,Program A,,No,2.0,2.0,2.0,5.0,4.0,2.0,5.0,4.0,1.0,2.0,1.0,1.0,1.0,7.0,7.0,7.0,7.0,8.0,7.0,3.0,5.0,3.0,4.0,4.0,4.0,4.0,4.0,5.0,5.0,5.0,1.0,5.0,5.0,2.0,2.0,5.0,4.0,4.0,3.0,5.0,5.0,4.0,2.0,5.0,5.0,5.0,2.0,5.0,99.0,99.0,99.0,4.0,4.0,99.0,99.0,99.0,99.0,5.0,99.0,4.0,4.0,4.0,99.0,99.0,99.0,99.0,4.0,4.0,5.0,99.0,4.0,99.0,,5.0,5.0,5.0,5.0,4.0,5.0,5.0,5.0,5.0,5.0,4.0,4.0,6.0,2.0,5.0,5.0,2.0,2.0,5.0,4.0,3.0,5.0,6.0,5.0,4.0,5.0,,4.0,4.0,5.0,4.0,4.0,4.0,,1.7,1.0,2.0,4.0,4.666667,5.0,5.0,4.9
63960,590,2020-04-03 17:49:35,EN,63,Female,"College degree, bachelor, master",Up to 12 years of school,Retired,United States,no,Indiana,Married/cohabiting,0.0,No,Isolated in medical facility of similar location,1.0,0.0,Program B,,,,,,,,,,,,,,,,,,,,,,,,,,,,,,,,,,,,,,,,,,,,,,,,,,,,,,,,,,,,,,,,,,,,,,,,,,,,,,,,,,,,,,,,,,,,,,,,,,,,,,,,,,,,,,,,,,,,,
63967,1003,2020-04-02 17:52:48,EN,79,Female,PhD/Doctorate,College degree,Retired,United States,no,CA,Single,0.0,Yes,Isolated,0.0,0.0,,,,3.0,3.0,4.0,4.0,3.0,3.0,3.0,4.0,3.0,2.0,3.0,3.0,3.0,6.0,8.0,4.0,6.0,7.0,7.0,7.0,3.0,5.0,5.0,5.0,6.0,6.0,4.0,5.0,5.0,5.0,4.0,4.0,2.0,4.0,4.0,4.0,4.0,4.0,3.0,4.0,4.0,4.0,3.0,4.0,4.0,4.0,4.0,5.0,3.0,2.0,3.0,3.0,6.0,4.0,2.0,5.0,99.0,5.0,3.0,4.0,5.0,4.0,99.0,3.0,2.0,4.0,5.0,4.0,2.0,2.0,5.0,4.0,disruptions of my future plans,5.0,4.0,4.0,4.0,4.0,4.0,4.0,5.0,4.0,5.0,3.0,5.0,4.0,2.0,4.0,4.0,6.0,2.0,4.0,4.0,4.0,3.0,3.0,3.0,2.0,2.0,,3.0,4.0,5.0,4.0,4.0,4.0,can't take trips into nature| no retail therapy opportunity| need to buy/replace things that are in closed stores eg. new mattress,2.8,3.0,3.666667,4.0,4.0,4.0,4.0,4.3
63975,756,2020-04-02 17:46:55,EN,38,Female,"College degree, bachelor, master",College degree,Not employed,United States,no,New York,Married/cohabiting,0.0,Yes,Isolated,1.0,0.0,,Program D,Not sure,5.0,4.0,5.0,3.0,2.0,5.0,3.0,3.0,5.0,3.0,3.0,2.0,4.0,2.0,7.0,1.0,5.0,8.0,3.0,8.0,0.0,4.0,6.0,5.0,6.0,6.0,0.0,4.0,5.0,5.0,2.0,2.0,5.0,5.0,5.0,4.0,5.0,2.0,4.0,6.0,6.0,6.0,5.0,4.0,2.0,2.0,5.0,5.0,6.0,5.0,99.0,6.0,2.0,5.0,1.0,1.0,99.0,6.0,2.0,6.0,6.0,6.0,2.0,5.0,2.0,5.0,2.0,1.0,2.0,4.0,6.0,5.0,,6.0,6.0,5.0,6.0,6.0,6.0,6.0,6.0,6.0,6.0,1.0,5.0,5.0,2.0,5.0,4.0,4.0,4.0,2.0,5.0,5.0,4.0,5.0,2.0,1.0,1.0,,1.0,5.0,5.0,4.0,5.0,2.0,The dog is keeping me sane,4.0,3.0,4.333333,3.333333,6.0,2.666667,3.0,5.9
63978,1179,2020-04-02 17:52:55,EN,73,Female,"College degree, bachelor, master",Up to 12 years of school,Retired,United States,no,New York,Married/cohabiting,0.0,Yes,Life carries on with minor changes,2.0,0.0,,Program D,No,1.0,2.0,3.0,1.0,2.0,1.0,4.0,3.0,3.0,1.0,1.0,1.0,2.0,7.0,10.0,3.0,6.0,8.0,4.0,1.0,1.0,5.0,5.0,5.0,5.0,5.0,2.0,2.0,4.0,5.0,2.0,4.0,2.0,3.0,4.0,4.0,5.0,5.0,3.0,3.0,5.0,2.0,3.0,5.0,5.0,3.0,4.0,4.0,1.0,2.0,99.0,99.0,2.0,4.0,1.0,4.0,99.0,5.0,4.0,6.0,5.0,6.0,2.0,3.0,1.0,2.0,3.0,4.0,6.0,6.0,6.0,6.0,,6.0,6.0,6.0,6.0,6.0,6.0,6.0,6.0,6.0,6.0,2.0,5.0,6.0,4.0,5.0,5.0,2.0,2.0,5.0,3.0,2.0,4.0,5.0,4.0,1.0,2.0,,3.0,5.0,4.0,6.0,5.0,3.0,,2.5,1.333333,3.333333,4.666667,3.333333,4.666667,3.333333,6.0
63990,87,2020-04-03 17:29:36,EN,21,Female,"College degree, bachelor, master",Up to 12 years of school,Full time employed,United States,no,Pa,Single,0.0,Yes,Life carries on with minor changes,2.0,0.0,,,,,,,,,,,,,,,,,,,,,,,,,,,,,,,,,,,,,,,,,,,,,,,,,,,,,,,,,,,,,,,,,,,,,,,,,,,,,,,,,,,,,,,,,,,,,,,,,,,,,,,,,,,,,,,,,,,,,,
64011,759,2020-04-02 17:33:03,EN,57,Male,"Some College, short continuing education or equivalent",Up to 12 years of school,Full time employed,United States,no,MO,Married/cohabiting,0.0,No,Isolated,1.0,0.0,Program A,,No,3.0,5.0,5.0,2.0,1.0,4.0,2.0,2.0,5.0,5.0,1.0,1.0,3.0,7.0,10.0,,2.0,4.0,4.0,9.0,,3.0,5.0,3.0,6.0,6.0,0.0,5.0,3.0,2.0,1.0,2.0,1.0,5.0,4.0,5.0,2.0,1.0,6.0,4.0,5.0,6.0,1.0,5.0,6.0,5.0,5.0,5.0,99.0,1.0,1.0,3.0,6.0,4.0,1.0,1.0,1.0,99.0,4.0,2.0,3.0,5.0,1.0,4.0,1.0,1.0,1.0,1.0,5.0,3.0,5.0,3.0,,6.0,5.0,6.0,6.0,6.0,6.0,6.0,6.0,4.0,6.0,1.0,2.0,1.0,1.0,1.0,3.0,3.0,1.0,5.0,3.0,1.0,1.0,3.0,3.0,1.0,1.0,,1.0,5.0,6.0,4.0,4.0,2.0,,4.4,1.666667,3.666667,1.333333,5.0,5.666667,4.0,5.7
64016,668,2020-04-02 17:29:34,EN,29,Female,"College degree, bachelor, master",Some College or equivalent,Full time employed,United States,no,California,Married/cohabiting,0.0,Yes,Isolated,1.0,0.0,,Program D,No,4.0,4.0,5.0,3.0,2.0,3.0,3.0,3.0,4.0,4.0,1.0,2.0,3.0,3.0,6.0,5.0,5.0,7.0,7.0,10.0,5.0,4.0,6.0,4.0,6.0,6.0,4.0,5.0,3.0,6.0,3.0,3.0,2.0,6.0,6.0,4.0,4.0,1.0,6.0,4.0,4.0,3.0,3.0,4.0,6.0,5.0,4.0,6.0,4.0,3.0,99.0,99.0,4.0,4.0,1.0,2.0,99.0,6.0,4.0,6.0,6.0,4.0,3.0,3.0,3.0,3.0,5.0,6.0,2.0,99.0,4.0,2.0,,5.0,5.0,5.0,5.0,6.0,5.0,5.0,6.0,4.0,6.0,4.0,4.0,5.0,5.0,5.0,5.0,1.0,1.0,5.0,4.0,3.0,5.0,5.0,5.0,1.0,5.0,,4.0,4.0,4.0,3.0,3.0,3.0,,3.7,2.0,5.0,2.0,3.666667,4.666667,4.666667,5.2
64026,774,2020-04-02 17:29:16,EN,56,Female,"College degree, bachelor, master",Some College or equivalent,Full time employed,United States,no,Indiana,Married/cohabiting,1.0,Yes,Isolated,1.0,0.0,,Program C,No,3.0,3.0,4.0,3.0,3.0,3.0,3.0,1.0,2.0,2.0,3.0,4.0,4.0,7.0,8.0,3.0,6.0,5.0,5.0,9.0,3.0,5.0,5.0,5.0,6.0,6.0,0.0,5.0,4.0,5.0,1.0,2.0,2.0,5.0,5.0,3.0,5.0,2.0,4.0,4.0,5.0,3.0,2.0,5.0,4.0,4.0,2.0,4.0,2.0,5.0,5.0,99.0,4.0,5.0,1.0,4.0,99.0,3.0,3.0,5.0,5.0,6.0,6.0,2.0,4.0,3.0,4.0,4.0,3.0,2.0,5.0,4.0,,4.0,5.0,4.0,3.0,5.0,5.0,5.0,5.0,3.0,4.0,3.0,4.0,5.0,2.0,5.0,5.0,2.0,2.0,4.0,4.0,3.0,3.0,5.0,3.0,2.0,4.0,,3.0,4.0,4.0,4.0,4.0,2.0,,3.1,3.666667,4.666667,3.333333,4.0,4.666667,4.333333,4.3
64062,1164,2020-04-02 17:20:00,EN,30,Male,"College degree, bachelor, master",College degree,Student,United States,no,Massachusetts,Married/cohabiting,0.0,Yes,Isolated,2.0,0.0,Program A,,No,2.0,5.0,5.0,3.0,2.0,4.0,2.0,2.0,4.0,3.0,3.0,2.0,5.0,8.0,10.0,1.0,0.0,5.0,1.0,6.0,0.0,5.0,6.0,5.0,6.0,6.0,0.0,6.0,5.0,5.0,6.0,4.0,6.0,4.0,,,6.0,4.0,2.0,,,5.0,3.0,,5.0,2.0,5.0,5.0,6.0,6.0,99.0,6.0,4.0,6.0,99.0,1.0,99.0,6.0,2.0,5.0,5.0,6.0,99.0,5.0,5.0,5.0,6.0,6.0,5.0,2.0,6.0,5.0,,6.0,6.0,6.0,6.0,6.0,6.0,6.0,6.0,6.0,6.0,1.0,6.0,6.0,2.0,5.0,2.0,6.0,5.0,6.0,5.0,5.0,2.0,1.0,6.0,1.0,1.0,,1.0,2.0,2.0,2.0,4.0,4.0,"My family being scattered around the world - dad & sister in Dubai, mom in Pennsylvania with my grandmother, brother in Chicago. I'm used to living apart, but this is different. Makes me sad not to know when we'll all be together and has been a big source of stress.",3.8,3.333333,4.0,5.0,5.0,4.5,3.0,6.0
64081,3663,2020-04-02 17:56:07,EN,42,Female,"College degree, bachelor, master",College degree,Not employed,United States,no,California,Married/cohabiting,0.0,Yes,Isolated,2.0,1.0,,Program C,No,2.0,3.0,3.0,4.0,2.0,1.0,3.0,4.0,2.0,2.0,4.0,4.0,4.0,3.0,7.0,3.0,4.0,5.0,2.0,8.0,1.0,2.0,2.0,4.0,6.0,5.0,2.0,6.0,5.0,5.0,4.0,2.0,2.0,2.0,1.0,6.0,3.0,2.0,5.0,5.0,5.0,5.0,4.0,4.0,4.0,6.0,2.0,6.0,4.0,99.0,99.0,5.0,3.0,6.0,99.0,5.0,6.0,6.0,5.0,3.0,4.0,3.0,2.0,4.0,2.0,6.0,4.0,6.0,4.0,1.0,4.0,2.0,US Government making bad decisions that will make the overall situation worse,6.0,5.0,5.0,5.0,5.0,6.0,5.0,6.0,5.0,5.0,3.0,4.0,6.0,1.0,3.0,5.0,5.0,4.0,5.0,4.0,4.0,5.0,3.0,4.0,1.0,4.0,,4.0,6.0,5.0,4.0,6.0,3.0,,2.4,4.0,1.333333,2.333333,5.0,3.666667,5.666667,5.3
64113,938,2020-04-02 17:01:33,EN,70,Female,PhD/Doctorate,Up to 9 years of school,Retired,United States,no,Pennsylvania,Married/cohabiting,0.0,Yes,Isolated,2.0,0.0,,Program C,No,3.0,4.0,3.0,5.0,4.0,2.0,5.0,4.0,4.0,2.0,1.0,1.0,3.0,6.0,9.0,3.0,6.0,8.0,8.0,10.0,1.0,5.0,5.0,5.0,6.0,5.0,1.0,6.0,6.0,6.0,2.0,4.0,5.0,5.0,4.0,6.0,5.0,5.0,2.0,5.0,6.0,5.0,1.0,6.0,6.0,6.0,1.0,6.0,1.0,1.0,99.0,1.0,4.0,2.0,1.0,4.0,99.0,5.0,1.0,5.0,5.0,5.0,1.0,1.0,1.0,2.0,2.0,2.0,4.0,1.0,3.0,1.0,,6.0,6.0,6.0,6.0,6.0,6.0,6.0,6.0,5.0,5.0,1.0,4.0,6.0,3.0,6.0,5.0,1.0,1.0,5.0,6.0,5.0,5.0,1.0,6.0,2.0,1.0,,1.0,5.0,5.0,5.0,5.0,5.0,,2.4,1.666667,3.333333,5.0,5.333333,6.0,6.0,5.8
64133,576,2020-04-02 16:46:48,EN,41,Female,"College degree, bachelor, master",College degree,Not employed,United States,no,California,Married/cohabiting,1.0,Yes,Isolated,1.0,1.0,,Program C,No,2.0,5.0,4.0,3.0,1.0,3.0,3.0,3.0,4.0,2.0,2.0,2.0,2.0,2.0,7.0,,3.0,3.0,,5.0,,6.0,6.0,5.0,6.0,6.0,0.0,5.0,6.0,5.0,2.0,2.0,5.0,6.0,5.0,3.0,1.0,1.0,6.0,4.0,5.0,5.0,5.0,1.0,4.0,6.0,3.0,5.0,99.0,99.0,6.0,6.0,6.0,1.0,1.0,2.0,1.0,6.0,3.0,6.0,6.0,6.0,99.0,1.0,1.0,1.0,1.0,2.0,2.0,2.0,4.0,1.0,,6.0,6.0,4.0,6.0,6.0,6.0,6.0,6.0,6.0,6.0,1.0,2.0,2.0,2.0,1.0,1.0,6.0,5.0,5.0,2.0,5.0,1.0,4.0,5.0,4.0,1.0,,2.0,1.0,6.0,1.0,3.0,1.0,,3.4,2.0,5.0,1.0,4.666667,2.333333,5.0,5.8
64178,976,2020-04-02 16:38:07,EN,73,Female,PhD/Doctorate,Up to 6 years of school,Retired,United States,no,,Married/cohabiting,0.0,Yes,Isolated,1.0,0.0,Program B,,No,3.0,3.0,3.0,4.0,3.0,2.0,4.0,3.0,2.0,2.0,2.0,3.0,4.0,5.0,8.0,1.0,6.0,6.0,3.0,8.0,0.0,6.0,6.0,6.0,6.0,6.0,0.0,5.0,6.0,6.0,5.0,4.0,,6.0,4.0,5.0,4.0,2.0,6.0,4.0,6.0,4.0,3.0,6.0,6.0,3.0,3.0,4.0,3.0,5.0,4.0,99.0,2.0,4.0,4.0,1.0,99.0,6.0,2.0,6.0,6.0,6.0,99.0,,2.0,3.0,4.0,4.0,3.0,4.0,6.0,5.0,,3.0,6.0,6.0,6.0,6.0,5.0,6.0,6.0,4.0,3.0,2.0,5.0,6.0,6.0,6.0,6.0,,2.0,4.0,4.0,4.0,4.0,2.0,6.0,3.0,2.0,,3.0,5.0,5.0,6.0,6.0,3.0,,2.5,3.0,4.0,2.333333,4.666667,5.333333,3.666667,5.1
64193,461,2020-04-03 16:26:15,EN,69,Female,"Some College, short continuing education or equivalent",College degree,Retired,United States,no,Pa.,Divorced/widowed,0.0,Yes,Life carries on with minor changes,,,Program A,,No,1.0,2.0,3.0,5.0,3.0,1.0,3.0,4.0,3.0,2.0,3.0,1.0,3.0,5.0,9.0,0.0,6.0,2.0,3.0,8.0,0.0,5.0,5.0,5.0,5.0,5.0,0.0,6.0,6.0,6.0,1.0,1.0,4.0,3.0,4.0,4.0,4.0,5.0,1.0,3.0,6.0,4.0,5.0,5.0,5.0,2.0,4.0,5.0,,,,,,,,,,,,,,,,,,,,,,,,,,,,,,,,,,,,,,,,,,,,,,,,,,,,,,,,,,,,2.1,2.333333,3.333333,5.0,4.333333,4.0,3.333333,
64209,1665,2020-04-02 16:41:50,LT,52,Female,"College degree, bachelor, master",Up to 9 years of school,Full time employed,United States,no,Ilinojus,Married/cohabiting,1.0,Yes,Life carries on with minor changes,,,,Program D,Not sure,3.0,3.0,3.0,3.0,3.0,3.0,4.0,4.0,3.0,3.0,3.0,4.0,3.0,6.0,8.0,7.0,8.0,8.0,7.0,7.0,6.0,5.0,5.0,5.0,5.0,5.0,4.0,5.0,5.0,5.0,2.0,5.0,4.0,4.0,3.0,5.0,4.0,5.0,4.0,3.0,5.0,2.0,4.0,3.0,5.0,4.0,5.0,5.0,4.0,4.0,4.0,4.0,4.0,5.0,4.0,5.0,4.0,4.0,4.0,5.0,4.0,5.0,5.0,4.0,4.0,5.0,2.0,5.0,4.0,2.0,4.0,5.0,,4.0,5.0,5.0,5.0,4.0,5.0,5.0,5.0,4.0,4.0,5.0,5.0,5.0,4.0,4.0,5.0,5.0,5.0,5.0,4.0,5.0,5.0,5.0,5.0,5.0,5.0,,4.0,4.0,5.0,5.0,4.0,4.0,,2.8,3.333333,3.0,4.0,3.333333,3.666667,3.666667,4.6
64236,866,2020-04-03 16:18:31,EN,69,Male,"College degree, bachelor, master",Up to 12 years of school,Retired,United States,no,California,Single,0.0,Yes,Isolated,0.0,0.0,Program B,,No,3.0,2.0,3.0,4.0,3.0,2.0,4.0,3.0,3.0,3.0,3.0,3.0,3.0,5.0,8.0,3.0,5.0,4.0,2.0,9.0,1.0,5.0,6.0,5.0,5.0,6.0,1.0,6.0,5.0,5.0,2.0,4.0,5.0,4.0,3.0,4.0,4.0,4.0,4.0,3.0,6.0,4.0,4.0,5.0,4.0,5.0,2.0,4.0,3.0,99.0,99.0,99.0,5.0,5.0,6.0,99.0,99.0,5.0,2.0,6.0,6.0,6.0,99.0,2.0,4.0,4.0,4.0,5.0,2.0,2.0,4.0,6.0,,5.0,6.0,6.0,6.0,6.0,5.0,6.0,6.0,4.0,6.0,4.0,4.0,6.0,4.0,6.0,4.0,3.0,2.0,4.0,4.0,4.0,4.0,3.0,5.0,5.0,5.0,,4.0,5.0,2.0,5.0,2.0,4.0,,2.6,3.0,3.333333,3.666667,4.333333,4.0,4.666667,5.6
64260,239,2020-04-03 15:58:49,FR,33,Male,PhD/Doctorate,Up to 12 years of school,Full time employed,United States,yes,,Married/cohabiting,1.0,Yes,Life carries on with minor changes,1.0,1.0,Program A,,,,,,,,,,,,,,,,,,,,,,,,,,,,,,,,,,,,,,,,,,,,,,,,,,,,,,,,,,,,,,,,,,,,,,,,,,,,,,,,,,,,,,,,,,,,,,,,,,,,,,,,,,,,,,,,,,,,,
64307,838,2020-04-02 15:57:13,EN,58,Female,"College degree, bachelor, master",Some College or equivalent,Not employed,United States,no,Texas,Married/cohabiting,0.0,Yes,Life carries on with minor changes,1.0,0.0,,Program C,Not sure,2.0,2.0,4.0,4.0,3.0,2.0,4.0,4.0,2.0,3.0,1.0,3.0,3.0,9.0,9.0,5.0,9.0,8.0,5.0,8.0,5.0,5.0,5.0,5.0,5.0,5.0,3.0,6.0,5.0,4.0,2.0,2.0,2.0,5.0,3.0,5.0,5.0,5.0,4.0,5.0,5.0,4.0,1.0,6.0,5.0,3.0,4.0,5.0,4.0,99.0,99.0,5.0,2.0,2.0,2.0,2.0,99.0,4.0,2.0,5.0,3.0,4.0,3.0,4.0,1.0,2.0,2.0,1.0,4.0,1.0,4.0,1.0,,6.0,5.0,5.0,5.0,6.0,5.0,5.0,6.0,5.0,6.0,3.0,1.0,6.0,1.0,4.0,4.0,2.0,4.0,2.0,5.0,5.0,5.0,4.0,4.0,4.0,3.0,,4.0,4.0,2.0,2.0,4.0,5.0,,2.4,2.333333,3.333333,4.333333,4.666667,5.666667,3.666667,5.4
64355,176,2020-04-03 15:35:07,EN,41,Female,"College degree, bachelor, master",College degree,Student,United States,no,Hawaii,Married/cohabiting,2.0,Yes,Isolated,1.0,2.0,,,,,,,,,,,,,,,,,,,,,,,,,,,,,,,,,,,,,,,,,,,,,,,,,,,,,,,,,,,,,,,,,,,,,,,,,,,,,,,,,,,,,,,,,,,,,,,,,,,,,,,,,,,,,,,,,,,,,,
64373,1521,2020-04-02 15:52:50,EN,33,Male,"College degree, bachelor, master",College degree,Full time employed,United States,yes,CA,Married/cohabiting,1.0,Yes,Isolated,1.0,0.0,,Program C,Yes,5.0,5.0,5.0,5.0,1.0,5.0,2.0,1.0,5.0,5.0,2.0,5.0,5.0,3.0,6.0,2.0,5.0,4.0,2.0,5.0,1.0,6.0,6.0,6.0,6.0,6.0,0.0,6.0,6.0,6.0,4.0,6.0,6.0,6.0,6.0,3.0,6.0,6.0,4.0,6.0,6.0,6.0,3.0,4.0,5.0,6.0,3.0,6.0,6.0,6.0,99.0,6.0,6.0,6.0,1.0,6.0,99.0,6.0,6.0,6.0,6.0,6.0,6.0,6.0,1.0,6.0,6.0,6.0,1.0,1.0,6.0,6.0,,6.0,6.0,6.0,6.0,6.0,6.0,4.0,6.0,6.0,6.0,1.0,2.0,6.0,1.0,5.0,6.0,6.0,1.0,5.0,4.0,6.0,6.0,5.0,5.0,1.0,5.0,,5.0,5.0,6.0,2.0,6.0,1.0,Not enough help to personal economy like rent,4.5,4.0,5.333333,5.0,6.0,4.333333,5.333333,5.8
64381,941,2020-04-03 15:40:25,EN,53,Female,"Some College, short continuing education or equivalent",Up to 12 years of school,Retired,United States,no,DE,Single,0.0,Yes,Life carries on as usual,0.0,0.0,,Program D,Yes,2.0,2.0,4.0,5.0,4.0,2.0,1.0,4.0,3.0,1.0,5.0,1.0,5.0,1.0,1.0,4.0,3.0,4.0,5.0,3.0,,6.0,6.0,6.0,6.0,6.0,1.0,6.0,6.0,6.0,6.0,4.0,1.0,3.0,1.0,4.0,6.0,1.0,4.0,4.0,6.0,1.0,1.0,6.0,6.0,4.0,4.0,6.0,,,,,,,,,,,,,,,,,,,,,,,,,,,,,,,,,,,,,,,,,,,,,,,,,,,,,,,,,,,,2.4,3.666667,2.333333,3.333333,3.666667,6.0,4.333333,
64392,4160,2020-04-02 16:28:33,EN,46,Male,"College degree, bachelor, master",College degree,Full time employed,United States,no,Minnesota,Married/cohabiting,0.0,No,Isolated,1.0,0.0,,Program C,No,1.0,2.0,1.0,5.0,3.0,1.0,5.0,4.0,2.0,1.0,1.0,2.0,3.0,8.0,9.0,7.0,5.0,9.0,3.0,10.0,2.0,1.0,2.0,3.0,6.0,6.0,2.0,5.0,5.0,5.0,1.0,4.0,4.0,2.0,1.0,6.0,1.0,1.0,5.0,6.0,6.0,6.0,5.0,5.0,6.0,6.0,3.0,6.0,2.0,1.0,99.0,6.0,1.0,4.0,99.0,2.0,99.0,3.0,4.0,2.0,3.0,3.0,1.0,5.0,1.0,1.0,1.0,4.0,1.0,2.0,4.0,1.0,"After several years of jobhunting, a very promising job interview was cancelled because of this, and I don't know if the institution will resume hiring after the pandemic. But I am still working, and other than that, I am fortunate to so far be minimally impacted.",4.0,4.0,1.0,5.0,5.0,6.0,5.0,6.0,6.0,4.0,4.0,3.0,2.0,1.0,1.0,4.0,1.0,1.0,4.0,2.0,4.0,4.0,4.0,4.0,1.0,4.0,"Don't play videogames. Do play roleplaying games. Those are much harder to do when you can't gather, but we've been making it work anyway.",3.0,2.0,4.0,1.0,2.0,1.0,"I've been jobhunting for several years, and recently had a very promising job interview indefinitely postponed because of Covid-19, and I don't know if the institution will resume hiring after the pandemic. I currently still have a job, but the institution is being transparent that this is hurting finances and that could change. I work in healthcare, so I feel very well-informed despite, not because of, Trump administration actions. When completing this survey, I treated questions about ""the government"" to mean elected and appointed individuals, i.e., Trump's cronies that are almost universally unqualified, and questions about ""civil servants"" to mean the people who are actually qualified to do their jobs. It's very confusing to be able to trust everyone at the NIH and CDC and similar *except* for their heads.",1.5,2.0,1.333333,1.333333,6.0,4.333333,5.333333,4.6
64399,792,2020-04-02 15:31:46,IT,30,Male,"College degree, bachelor, master",Up to 12 years of school,Full time employed,United States,yes,Pennsylvania,Single,0.0,Yes,Life carries on with minor changes,2.0,0.0,,Program D,No,1.0,3.0,3.0,5.0,1.0,3.0,2.0,2.0,1.0,2.0,2.0,2.0,2.0,3.0,7.0,5.0,4.0,4.0,4.0,7.0,2.0,3.0,6.0,5.0,4.0,4.0,5.0,6.0,5.0,5.0,1.0,2.0,1.0,1.0,1.0,6.0,4.0,2.0,4.0,3.0,3.0,4.0,5.0,3.0,3.0,5.0,4.0,3.0,4.0,3.0,99.0,4.0,4.0,1.0,1.0,4.0,99.0,2.0,1.0,5.0,4.0,6.0,4.0,2.0,1.0,1.0,1.0,2.0,1.0,1.0,2.0,5.0,,1.0,4.0,3.0,3.0,4.0,6.0,2.0,5.0,5.0,2.0,2.0,1.0,2.0,1.0,4.0,1.0,6.0,2.0,4.0,2.0,4.0,2.0,5.0,6.0,1.0,2.0,,1.0,1.0,1.0,6.0,1.0,1.0,"Sono un ricercatore biomedico. Conducevo già una vita solitaria e ero già addestrato a gestire potenziale rischio biologico. L'unica differenza è che non posso arrampicarmi indoor, per il resto la vita è praticamente uguale a prima - salvo le migliaia di morti.",2.7,2.0,1.0,3.0,3.333333,2.666667,3.666667,3.5
64428,840,2020-04-03 15:23:03,EN,40,Female,"College degree, bachelor, master",College degree,Full time employed,United States,no,NY,Married/cohabiting,1.0,Yes,Isolated,1.0,1.0,Program A,,No,2.0,2.0,3.0,5.0,4.0,1.0,4.0,5.0,2.0,2.0,1.0,1.0,2.0,5.0,7.0,4.0,5.0,8.0,3.0,9.0,1.0,4.0,5.0,5.0,6.0,6.0,,5.0,5.0,5.0,3.0,3.0,5.0,4.0,4.0,4.0,4.0,3.0,5.0,4.0,6.0,4.0,2.0,4.0,6.0,4.0,3.0,5.0,1.0,6.0,5.0,1.0,4.0,5.0,1.0,2.0,4.0,6.0,5.0,5.0,5.0,5.0,6.0,4.0,4.0,4.0,4.0,4.0,5.0,4.0,5.0,2.0,,6.0,5.0,5.0,6.0,6.0,6.0,6.0,6.0,6.0,6.0,3.0,4.0,6.0,2.0,5.0,5.0,2.0,3.0,5.0,4.0,4.0,5.0,5.0,4.0,1.0,4.0,,4.0,5.0,4.0,4.0,5.0,3.0,,1.8,1.333333,3.666667,3.0,4.666667,5.0,4.333333,5.8
64434,1155,2020-04-02 15:26:10,EN,58,Male,"College degree, bachelor, master",Some College or equivalent,Full time employed,United States,yes,California,Married/cohabiting,0.0,Yes,Isolated,2.0,0.0,,Program C,No,4.0,2.0,3.0,5.0,4.0,2.0,4.0,3.0,3.0,3.0,3.0,4.0,4.0,0.0,8.0,,7.0,7.0,3.0,9.0,2.0,5.0,5.0,5.0,5.0,5.0,0.0,5.0,6.0,6.0,1.0,4.0,4.0,5.0,3.0,6.0,6.0,6.0,3.0,5.0,6.0,2.0,1.0,5.0,6.0,5.0,1.0,6.0,6.0,1.0,99.0,6.0,6.0,6.0,6.0,5.0,99.0,6.0,5.0,6.0,6.0,5.0,1.0,1.0,6.0,5.0,2.0,3.0,4.0,2.0,6.0,6.0,NO,5.0,6.0,6.0,6.0,5.0,6.0,6.0,5.0,6.0,4.0,3.0,5.0,6.0,4.0,6.0,5.0,1.0,1.0,3.0,6.0,5.0,4.0,6.0,3.0,6.0,4.0,no,4.0,6.0,6.0,2.0,4.0,4.0,,2.5,3.666667,3.0,5.333333,4.333333,5.666667,5.666667,5.5
64446,843,2020-04-02 15:17:42,HU,48,Male,PhD/Doctorate,Up to 12 years of school,Full time employed,United States,yes,Virginia,Married/cohabiting,3.0,Yes,Isolated,2.0,1.0,Program A,,No,2.0,2.0,2.0,5.0,5.0,2.0,5.0,5.0,2.0,2.0,3.0,3.0,3.0,2.0,8.0,10.0,9.0,7.0,5.0,1.0,10.0,6.0,6.0,6.0,6.0,6.0,5.0,6.0,6.0,6.0,1.0,5.0,4.0,2.0,,6.0,6.0,6.0,4.0,6.0,6.0,3.0,5.0,5.0,6.0,5.0,5.0,6.0,1.0,1.0,6.0,1.0,1.0,1.0,1.0,1.0,1.0,6.0,1.0,6.0,6.0,6.0,1.0,1.0,1.0,1.0,1.0,1.0,1.0,1.0,1.0,99.0,,6.0,6.0,6.0,6.0,6.0,6.0,6.0,6.0,5.0,6.0,6.0,1.0,6.0,1.0,6.0,6.0,1.0,1.0,1.0,6.0,6.0,6.0,6.0,1.0,1.0,5.0,,6.0,6.0,6.0,6.0,6.0,6.0,,1.6,3.0,1.5,5.0,5.0,4.333333,4.333333,5.9
64468,1303,2020-04-02 15:19:25,EN,21,Female,"College degree, bachelor, master",College degree,Full time employed,United States,no,California,Single,0.0,Yes,Life carries on with minor changes,3.0,0.0,,Program D,No,4.0,5.0,3.0,4.0,2.0,3.0,2.0,2.0,3.0,3.0,3.0,3.0,3.0,4.0,7.0,4.0,6.0,5.0,8.0,9.0,8.0,3.0,4.0,4.0,6.0,5.0,4.0,5.0,5.0,5.0,3.0,2.0,5.0,3.0,3.0,3.0,3.0,3.0,5.0,2.0,2.0,3.0,2.0,4.0,5.0,5.0,5.0,5.0,6.0,5.0,99.0,4.0,6.0,2.0,99.0,4.0,99.0,5.0,5.0,5.0,4.0,4.0,3.0,2.0,3.0,4.0,5.0,3.0,6.0,3.0,6.0,99.0,,5.0,4.0,4.0,6.0,6.0,5.0,6.0,6.0,4.0,5.0,6.0,5.0,5.0,4.0,4.0,5.0,1.0,1.0,6.0,4.0,4.0,5.0,5.0,5.0,1.0,4.0,,5.0,6.0,4.0,4.0,3.0,1.0,,3.5,3.0,3.333333,2.666667,2.333333,4.666667,4.0,5.1
64499,868,2020-04-02 15:04:01,EN,74,Female,"College degree, bachelor, master",College degree,Retired,United States,no,Michigan,Single,0.0,Yes,Isolated,0.0,0.0,Program A,,No,2.0,2.0,2.0,5.0,3.0,1.0,5.0,4.0,1.0,1.0,1.0,2.0,3.0,10.0,10.0,4.0,10.0,10.0,7.0,8.0,1.0,4.0,4.0,4.0,5.0,6.0,0.0,5.0,6.0,5.0,2.0,3.0,4.0,5.0,2.0,6.0,6.0,6.0,3.0,6.0,6.0,6.0,1.0,6.0,6.0,5.0,2.0,6.0,99.0,99.0,99.0,99.0,3.0,5.0,99.0,99.0,99.0,6.0,1.0,4.0,2.0,3.0,99.0,99.0,2.0,1.0,2.0,99.0,2.0,2.0,5.0,1.0,,6.0,6.0,6.0,6.0,6.0,6.0,6.0,6.0,6.0,5.0,2.0,1.0,6.0,2.0,6.0,6.0,2.0,2.0,5.0,4.0,5.0,4.0,3.0,5.0,2.0,4.0,,1.0,6.0,6.0,3.0,3.0,3.0,,1.6,2.0,2.666667,5.333333,6.0,6.0,5.333333,5.9
64508,965,2020-04-02 15:04:05,EN,67,Female,"College degree, bachelor, master",College degree,Retired,United States,no,Washington,Married/cohabiting,0.0,Yes,Isolated,1.0,0.0,Program B,,No,3.0,3.0,3.0,4.0,3.0,1.0,4.0,4.0,2.0,1.0,3.0,2.0,4.0,7.0,8.0,5.0,3.0,8.0,1.0,9.0,0.0,5.0,6.0,6.0,6.0,6.0,0.0,2.0,4.0,5.0,2.0,3.0,4.0,5.0,3.0,5.0,6.0,5.0,2.0,5.0,6.0,5.0,4.0,5.0,5.0,5.0,5.0,6.0,4.0,5.0,99.0,99.0,5.0,6.0,2.0,5.0,99.0,6.0,5.0,6.0,5.0,6.0,4.0,4.0,4.0,5.0,4.0,3.0,5.0,5.0,6.0,4.0,,4.0,5.0,5.0,5.0,5.0,5.0,5.0,5.0,5.0,5.0,4.0,5.0,6.0,4.0,6.0,5.0,1.0,1.0,5.0,4.0,4.0,4.0,4.0,3.0,1.0,4.0,,2.0,5.0,5.0,4.0,4.0,2.0,,2.2,3.0,3.333333,5.333333,5.333333,4.333333,4.333333,4.9
64546,479,2020-04-03 14:49:58,EN,44,Male,"College degree, bachelor, master",College degree,Self-employed,United States,no,California,Single,0.0,Yes,Isolated,1.0,0.0,Program A,,No,3.0,3.0,3.0,4.0,3.0,2.0,4.0,4.0,2.0,2.0,1.0,4.0,3.0,8.0,7.0,6.0,7.0,8.0,8.0,7.0,6.0,3.0,3.0,3.0,5.0,5.0,4.0,5.0,4.0,5.0,2.0,4.0,2.0,4.0,4.0,5.0,5.0,4.0,3.0,4.0,4.0,5.0,3.0,5.0,5.0,4.0,3.0,4.0,,,,,,,,,,,,,,,,,,,,,,,,,,,,,,,,,,,,,,,,,,,,,,,,,,,,,,,,,,,,2.4,2.666667,3.333333,4.333333,4.333333,4.666667,4.0,
64643,1950,2020-04-02 14:59:04,EN,19,Female,"Some College, short continuing education or equivalent",College degree,Student,United States,yes,Washington,Other or would rather not say,0.0,Yes,Isolated,2.0,0.0,,Program C,Yes,4.0,3.0,4.0,4.0,2.0,3.0,3.0,3.0,5.0,3.0,2.0,2.0,5.0,3.0,7.0,1.0,1.0,1.0,1.0,7.0,0.0,2.0,4.0,3.0,5.0,6.0,0.0,5.0,5.0,3.0,2.0,4.0,2.0,2.0,2.0,5.0,5.0,6.0,2.0,4.0,5.0,3.0,3.0,4.0,5.0,4.0,4.0,6.0,99.0,4.0,99.0,2.0,1.0,6.0,99.0,5.0,99.0,3.0,2.0,3.0,4.0,5.0,5.0,5.0,4.0,4.0,6.0,4.0,3.0,2.0,6.0,99.0,,6.0,6.0,6.0,6.0,6.0,6.0,6.0,6.0,6.0,6.0,4.0,5.0,6.0,1.0,6.0,6.0,5.0,1.0,5.0,2.0,3.0,3.0,4.0,4.0,4.0,3.0,,4.0,5.0,4.0,5.0,6.0,1.0,,3.4,3.0,2.0,5.333333,4.0,4.333333,4.333333,6.0
64732,509,2020-04-03 14:20:03,EN,58,Female,"Some College, short continuing education or equivalent",Up to 12 years of school,Self-employed,United States,no,Colorado,Married/cohabiting,0.0,Yes,Isolated,2.0,0.0,,Program D,No,2.0,2.0,3.0,4.0,3.0,2.0,4.0,4.0,3.0,2.0,3.0,2.0,3.0,5.0,8.0,5.0,10.0,5.0,7.0,7.0,10.0,4.0,5.0,5.0,5.0,4.0,9.0,5.0,5.0,5.0,2.0,5.0,4.0,2.0,2.0,5.0,4.0,5.0,2.0,4.0,4.0,4.0,1.0,5.0,6.0,5.0,1.0,5.0,,,,,,,,,,,,,,,,,,,,,,,,,,,,,,,,,,,,,,,,,,,,,,,,,,,,,,,,,,,,2.3,2.666667,2.0,4.666667,4.0,5.666667,5.333333,
64746,960,2020-04-03 14:23:58,EN,36,Female,"College degree, bachelor, master",College degree,Part time employed,United States,no,Utah,Married/cohabiting,3.0,Yes,Life carries on with minor changes,2.0,3.0,Program A,,No,3.0,3.0,4.0,3.0,3.0,3.0,3.0,2.0,2.0,4.0,2.0,3.0,4.0,4.0,8.0,5.0,5.0,5.0,6.0,6.0,5.0,4.0,4.0,4.0,4.0,4.0,5.0,4.0,4.0,5.0,3.0,4.0,2.0,3.0,3.0,4.0,5.0,5.0,3.0,4.0,5.0,3.0,4.0,4.0,4.0,3.0,4.0,4.0,3.0,4.0,5.0,3.0,4.0,3.0,4.0,4.0,5.0,3.0,2.0,4.0,3.0,3.0,3.0,4.0,3.0,6.0,5.0,3.0,2.0,3.0,5.0,99.0,,5.0,2.0,5.0,4.0,5.0,4.0,5.0,4.0,4.0,5.0,2.0,4.0,4.0,3.0,4.0,4.0,4.0,3.0,3.0,4.0,4.0,4.0,2.0,4.0,4.0,2.0,,4.0,2.0,2.0,2.0,3.0,2.0,I have depression which affects how 8 view the situation moment by moment,3.2,3.0,3.0,4.666667,4.0,3.666667,3.333333,4.3
64817,920,2020-04-02 14:10:50,EN,40,Female,"College degree, bachelor, master",Up to 12 years of school,Full time employed,United States,no,CO,Divorced/widowed,4.0,No,Life carries on with minor changes,0.0,1.0,Program B,,No,1.0,1.0,1.0,5.0,5.0,1.0,1.0,5.0,1.0,1.0,1.0,1.0,1.0,8.0,10.0,10.0,10.0,10.0,10.0,10.0,5.0,5.0,5.0,5.0,5.0,5.0,1.0,6.0,6.0,6.0,1.0,5.0,6.0,2.0,1.0,6.0,6.0,6.0,3.0,5.0,5.0,5.0,2.0,6.0,6.0,4.0,2.0,6.0,2.0,2.0,1.0,1.0,2.0,2.0,2.0,2.0,2.0,5.0,2.0,2.0,2.0,5.0,1.0,1.0,2.0,1.0,2.0,1.0,2.0,2.0,2.0,3.0,,6.0,6.0,5.0,6.0,6.0,6.0,6.0,6.0,6.0,6.0,2.0,6.0,6.0,6.0,6.0,6.0,2.0,1.0,6.0,6.0,6.0,5.0,6.0,6.0,5.0,2.0,,4.0,4.0,5.0,5.0,4.0,3.0,No really my life is almost the same with the exception of going out,1.4,1.0,1.333333,5.333333,5.0,5.666667,5.0,5.9
64853,1947,2020-04-02 14:23:44,EN,52,Female,"College degree, bachelor, master",Some College or equivalent,Part time employed,United States,no,Washington,Married/cohabiting,1.0,No,Life carries on with minor changes,0.0,0.0,Program A,,No,3.0,3.0,3.0,4.0,2.0,3.0,4.0,3.0,3.0,1.0,3.0,2.0,4.0,7.0,9.0,4.0,5.0,4.0,6.0,9.0,2.0,3.0,4.0,3.0,5.0,5.0,2.0,5.0,5.0,4.0,2.0,4.0,2.0,5.0,2.0,4.0,4.0,3.0,4.0,4.0,5.0,4.0,3.0,5.0,4.0,4.0,4.0,5.0,2.0,1.0,4.0,1.0,2.0,4.0,99.0,99.0,99.0,3.0,2.0,3.0,4.0,5.0,4.0,2.0,1.0,2.0,5.0,2.0,3.0,4.0,4.0,2.0,,4.0,5.0,4.0,5.0,4.0,4.0,4.0,5.0,4.0,4.0,2.0,5.0,6.0,4.0,4.0,5.0,1.0,1.0,5.0,5.0,3.0,3.0,5.0,5.0,1.0,2.0,,1.0,4.0,4.0,5.0,5.0,4.0,"I believe the United States will never be the same again| I fear there will be a large increase in poverty in the short-term, and many will suffer. In the long-term I have some hope that changes for the better may come.",2.7,3.0,3.333333,3.333333,4.333333,4.333333,4.0,4.3
64859,1386,2020-04-02 14:13:36,EN,36,Male,"College degree, bachelor, master",College degree,Full time employed,United States,no,Ohio,Married/cohabiting,3.0,No,Life carries on with minor changes,1.0,2.0,,Program D,No,3.0,3.0,5.0,3.0,2.0,3.0,3.0,2.0,4.0,4.0,3.0,4.0,4.0,6.0,6.0,5.0,5.0,6.0,6.0,5.0,6.0,4.0,4.0,4.0,5.0,5.0,5.0,5.0,4.0,4.0,4.0,2.0,5.0,3.0,3.0,5.0,3.0,3.0,4.0,4.0,4.0,3.0,4.0,4.0,4.0,4.0,2.0,5.0,5.0,4.0,5.0,5.0,5.0,5.0,5.0,5.0,5.0,5.0,4.0,4.0,4.0,5.0,3.0,3.0,3.0,5.0,4.0,3.0,3.0,3.0,5.0,2.0,,3.0,4.0,5.0,2.0,3.0,4.0,3.0,4.0,4.0,4.0,4.0,4.0,5.0,5.0,4.0,3.0,2.0,2.0,5.0,4.0,4.0,4.0,5.0,4.0,6.0,3.0,,5.0,5.0,3.0,4.0,5.0,2.0,,3.6,3.666667,2.666667,3.0,3.666667,3.666667,4.666667,3.6
64886,7766,2020-04-03 15:55:21,SME,22,Female,PhD/Doctorate,PhD/Doctorate,Self-employed,United States,yes,Arizona,Single,0.0,Yes,Isolated,3.0,0.0,Program A,,Not sure,4.0,2.0,3.0,5.0,4.0,3.0,3.0,4.0,4.0,2.0,1.0,1.0,3.0,2.0,5.0,3.0,7.0,7.0,8.0,3.0,9.0,6.0,6.0,6.0,6.0,6.0,5.0,5.0,6.0,6.0,4.0,4.0,2.0,2.0,4.0,5.0,4.0,4.0,5.0,6.0,5.0,6.0,1.0,5.0,5.0,,1.0,5.0,6.0,3.0,99.0,5.0,6.0,5.0,4.0,5.0,99.0,5.0,5.0,6.0,6.0,6.0,5.0,5.0,2.0,3.0,4.0,2.0,2.0,5.0,6.0,5.0,,6.0,4.0,5.0,6.0,5.0,5.0,6.0,6.0,5.0,5.0,1.0,5.0,6.0,1.0,6.0,5.0,2.0,1.0,2.0,5.0,5.0,2.0,5.0,6.0,5.0,5.0,,5.0,5.0,5.0,2.0,5.0,1.0,,2.6,1.666667,2.666667,3.333333,5.666667,5.333333,5.5,5.3
64984,855,2020-04-02 13:46:59,EN,39,Male,"College degree, bachelor, master",Some College or equivalent,Full time employed,United States,no,Philadelphia,Divorced/widowed,0.0,Yes,Life carries on with minor changes,0.0,0.0,,Program C,No,4.0,2.0,4.0,4.0,3.0,3.0,3.0,3.0,3.0,2.0,4.0,4.0,4.0,7.0,9.0,6.0,6.0,7.0,8.0,8.0,4.0,6.0,5.0,5.0,5.0,5.0,3.0,5.0,5.0,5.0,2.0,3.0,2.0,4.0,2.0,5.0,3.0,3.0,4.0,3.0,5.0,4.0,4.0,4.0,3.0,4.0,4.0,4.0,99.0,6.0,99.0,99.0,4.0,5.0,99.0,99.0,99.0,6.0,4.0,5.0,4.0,5.0,4.0,4.0,4.0,5.0,5.0,4.0,4.0,2.0,4.0,6.0,,5.0,5.0,4.0,4.0,4.0,4.0,5.0,5.0,5.0,4.0,2.0,1.0,5.0,5.0,4.0,4.0,4.0,3.0,4.0,5.0,3.0,4.0,2.0,4.0,2.0,3.0,,4.0,4.0,5.0,3.0,4.0,1.0,,2.9,4.0,2.666667,3.0,4.0,3.333333,3.666667,4.5
65045,719,2020-04-02 13:38:21,EN,39,Female,"College degree, bachelor, master",College degree,Full time employed,United States,no,Massachusetts,Married/cohabiting,2.0,Yes,Isolated,1.0,2.0,Program A,,Not sure,4.0,4.0,5.0,2.0,2.0,4.0,3.0,2.0,2.0,4.0,4.0,1.0,5.0,3.0,6.0,5.0,3.0,10.0,2.0,10.0,2.0,5.0,6.0,5.0,6.0,5.0,0.0,5.0,4.0,5.0,3.0,2.0,4.0,6.0,4.0,6.0,3.0,1.0,6.0,5.0,5.0,3.0,4.0,3.0,4.0,6.0,4.0,6.0,6.0,6.0,6.0,4.0,4.0,4.0,99.0,5.0,6.0,4.0,1.0,5.0,5.0,5.0,4.0,2.0,1.0,5.0,5.0,5.0,4.0,1.0,6.0,5.0,,4.0,4.0,5.0,5.0,6.0,5.0,5.0,6.0,5.0,4.0,3.0,3.0,5.0,1.0,3.0,4.0,5.0,5.0,2.0,1.0,5.0,4.0,4.0,4.0,1.0,3.0,,2.0,5.0,5.0,5.0,3.0,4.0,,3.8,3.333333,3.666667,1.666667,4.333333,3.333333,5.0,4.9
65056,665,2020-04-02 13:36:17,EN,25,Female,"College degree, bachelor, master",College degree,Self-employed,United States,no,California,Single,0.0,Yes,Life carries on with minor changes,4.0,0.0,Program A,,No,3.0,2.0,4.0,3.0,3.0,3.0,4.0,4.0,3.0,2.0,2.0,3.0,4.0,8.0,9.0,6.0,5.0,5.0,4.0,6.0,2.0,5.0,6.0,5.0,5.0,6.0,3.0,5.0,5.0,5.0,3.0,,2.0,4.0,3.0,5.0,5.0,4.0,4.0,4.0,6.0,4.0,2.0,6.0,6.0,5.0,2.0,6.0,6.0,99.0,99.0,6.0,5.0,3.0,1.0,3.0,99.0,6.0,3.0,6.0,6.0,6.0,4.0,3.0,3.0,5.0,5.0,5.0,3.0,3.0,6.0,3.0,,6.0,6.0,6.0,6.0,5.0,6.0,6.0,6.0,6.0,6.0,4.0,5.0,6.0,3.0,6.0,4.0,5.0,5.0,6.0,4.0,5.0,5.0,4.0,6.0,1.0,5.0,,5.0,5.0,3.0,3.0,4.0,3.0,,2.7,3.0,3.0,4.0,4.666667,5.666667,5.333333,5.9
65104,849,2020-04-02 13:33:37,EN,73,Male,"College degree, bachelor, master",Up to 12 years of school,Retired,United States,no,Michigan,Divorced/widowed,0.0,Yes,Isolated,1.0,0.0,Program B,,No,2.0,2.0,2.0,5.0,2.0,1.0,1.0,5.0,3.0,1.0,5.0,1.0,2.0,8.0,9.0,8.0,8.0,9.0,8.0,,6.0,6.0,6.0,6.0,6.0,6.0,3.0,6.0,6.0,6.0,2.0,4.0,4.0,5.0,3.0,5.0,5.0,5.0,4.0,4.0,5.0,5.0,2.0,5.0,5.0,5.0,2.0,5.0,2.0,2.0,99.0,99.0,2.0,2.0,1.0,2.0,99.0,3.0,3.0,3.0,2.0,5.0,2.0,2.0,2.0,2.0,2.0,2.0,3.0,3.0,3.0,1.0,,4.0,5.0,4.0,5.0,5.0,5.0,4.0,5.0,5.0,5.0,3.0,3.0,5.0,3.0,5.0,4.0,4.0,4.0,4.0,4.0,3.0,4.0,4.0,5.0,1.0,3.0,,2.0,2.0,2.0,2.0,1.0,2.0,,2.2,2.666667,3.333333,4.333333,4.666667,5.0,5.0,4.7
65129,3646,2020-04-02 14:17:25,EN,66,Female,"Some College, short continuing education or equivalent",Up to 12 years of school,Retired,United States,no,Oregon,Divorced/widowed,0.0,Yes,Isolated,0.0,0.0,Program B,,No,4.0,4.0,5.0,3.0,3.0,5.0,3.0,3.0,4.0,5.0,,4.0,5.0,4.0,7.0,3.0,6.0,5.0,3.0,9.0,2.0,6.0,6.0,6.0,6.0,6.0,2.0,4.0,5.0,5.0,5.0,2.0,2.0,5.0,5.0,4.0,5.0,3.0,4.0,4.0,5.0,5.0,3.0,5.0,5.0,4.0,3.0,5.0,6.0,99.0,99.0,99.0,6.0,6.0,5.0,99.0,99.0,6.0,5.0,6.0,6.0,6.0,99.0,6.0,4.0,6.0,6.0,6.0,2.0,4.0,6.0,3.0,Covid-19 will rebound & increase again come Fall 2020,5.0,4.0,4.0,5.0,4.0,5.0,5.0,5.0,4.0,4.0,3.0,6.0,6.0,5.0,6.0,4.0,2.0,2.0,5.0,5.0,4.0,4.0,5.0,4.0,5.0,3.0,"Meditation & breathing practice, exercise. Petting my cat.",5.0,5.0,4.0,6.0,4.0,2.0,"Communication & global actions toward peace, welfare of disadvantaged, & effects of climate change on our planet have been downgraded since the rise of concern regarding Covid-19.",3.9,4.5,4.333333,3.666667,4.666667,4.666667,4.333333,4.5
65147,328,2020-04-03 13:19:52,SME,29,Female,"College degree, bachelor, master",Up to 6 years of school,Not employed,United States,yes,Washington,Married/cohabiting,0.0,Yes,Isolated,1.0,0.0,,Program D,No,4.0,5.0,5.0,3.0,2.0,3.0,4.0,2.0,5.0,4.0,5.0,2.0,4.0,,,,,,,,,,,,,,,,,,,,,,,,,,,,,,,,,,,,,,,,,,,,,,,,,,,,,,,,,,,,,,,,,,,,,,,,,,,,,,,,,,,,,,,,,,,,,,,3.9,3.666667,,,,,,
65202,937,2020-04-02 13:21:20,EN,82,Female,PhD/Doctorate,College degree,Retired,United States,no,Calfornia,Divorced/widowed,0.0,Yes,Life carries on with minor changes,4.0,2.0,,Program C,No,3.0,3.0,3.0,3.0,2.0,3.0,3.0,3.0,4.0,3.0,2.0,2.0,2.0,5.0,6.0,2.0,3.0,3.0,9.0,4.0,1.0,6.0,5.0,4.0,6.0,6.0,1.0,5.0,4.0,3.0,3.0,2.0,3.0,4.0,2.0,3.0,3.0,5.0,4.0,5.0,4.0,4.0,3.0,5.0,5.0,3.0,3.0,5.0,5.0,99.0,6.0,99.0,3.0,2.0,3.0,4.0,99.0,5.0,4.0,3.0,3.0,3.0,3.0,2.0,3.0,2.0,3.0,3.0,2.0,3.0,5.0,2.0,,4.0,4.0,4.0,5.0,3.0,4.0,3.0,5.0,3.0,5.0,3.0,4.0,4.0,3.0,3.0,4.0,1.0,2.0,3.0,4.0,3.0,3.0,2.0,4.0,4.0,1.0,,2.0,4.0,4.0,3.0,4.0,4.0,,3.2,2.0,3.333333,3.666667,4.333333,4.666667,4.0,4.0
65262,1009,2020-04-03 13:12:19,EN,22,Female,"College degree, bachelor, master",Up to 12 years of school,Part time employed,United States,no,Texas,Single,0.0,Yes,Life carries on with minor changes,0.0,0.0,Program B,,No,5.0,4.0,4.0,2.0,2.0,4.0,1.0,2.0,5.0,4.0,5.0,5.0,5.0,5.0,8.0,3.0,3.0,2.0,5.0,6.0,1.0,4.0,6.0,6.0,6.0,6.0,1.0,4.0,4.0,4.0,2.0,3.0,2.0,5.0,5.0,2.0,5.0,2.0,5.0,2.0,6.0,3.0,2.0,4.0,5.0,4.0,4.0,4.0,6.0,5.0,99.0,5.0,5.0,6.0,5.0,99.0,99.0,6.0,5.0,6.0,6.0,6.0,6.0,6.0,5.0,6.0,6.0,2.0,5.0,2.0,5.0,99.0,,5.0,5.0,4.0,4.0,5.0,5.0,5.0,5.0,5.0,5.0,4.0,4.0,3.0,4.0,4.0,4.0,2.0,2.0,4.0,3.0,3.0,4.0,3.0,4.0,5.0,2.0,,4.0,3.0,4.0,2.0,4.0,2.0,,4.3,5.0,5.0,3.0,3.666667,4.666667,3.666667,4.8
65284,663,2020-04-02 13:03:51,EN,54,Female,"Some College, short continuing education or equivalent",Up to 9 years of school,Full time employed,United States,no,Michigan,Married/cohabiting,0.0,No,Life carries on with minor changes,1.0,0.0,Program A,,No,1.0,2.0,2.0,4.0,3.0,1.0,5.0,4.0,2.0,1.0,1.0,1.0,2.0,6.0,6.0,2.0,6.0,5.0,8.0,7.0,2.0,5.0,5.0,5.0,5.0,5.0,2.0,5.0,6.0,6.0,1.0,1.0,3.0,4.0,2.0,6.0,4.0,4.0,3.0,6.0,5.0,6.0,2.0,4.0,4.0,6.0,3.0,6.0,5.0,2.0,99.0,5.0,2.0,2.0,2.0,1.0,99.0,5.0,2.0,2.0,5.0,5.0,1.0,1.0,1.0,2.0,1.0,1.0,2.0,1.0,3.0,5.0,,4.0,5.0,4.0,5.0,4.0,5.0,4.0,5.0,5.0,5.0,4.0,3.0,4.0,4.0,2.0,5.0,6.0,6.0,5.0,4.0,5.0,5.0,4.0,5.0,5.0,4.0,,5.0,6.0,5.0,4.0,5.0,1.0,,1.7,1.333333,2.333333,4.0,5.666667,4.333333,5.333333,4.6
65285,858,2020-04-02 13:07:04,EN,68,Female,"College degree, bachelor, master",College degree,Retired,United States,no,Minnesta,Married/cohabiting,0.0,No,Isolated,1.0,0.0,,,,3.0,3.0,4.0,4.0,3.0,3.0,3.0,4.0,3.0,2.0,3.0,3.0,4.0,7.0,9.0,5.0,4.0,7.0,6.0,7.0,6.0,5.0,6.0,5.0,5.0,5.0,3.0,5.0,5.0,5.0,2.0,3.0,4.0,4.0,4.0,3.0,4.0,3.0,5.0,4.0,5.0,3.0,4.0,5.0,4.0,3.0,3.0,4.0,2.0,99.0,99.0,99.0,3.0,4.0,4.0,2.0,99.0,2.0,3.0,5.0,6.0,6.0,99.0,4.0,2.0,2.0,5.0,6.0,2.0,,5.0,5.0,,5.0,5.0,5.0,5.0,5.0,5.0,5.0,5.0,5.0,5.0,4.0,5.0,5.0,2.0,5.0,5.0,2.0,2.0,5.0,5.0,4.0,3.0,4.0,4.0,3.0,4.0,,5.0,4.0,3.0,3.0,5.0,4.0,,2.8,3.333333,4.0,3.0,4.0,4.0,3.666667,5.0
65323,1080,2020-04-02 13:03:38,EN,79,Female,"College degree, bachelor, master",PhD/Doctorate,Retired,United States,no,Washington,Single,0.0,Yes,Isolated,0.0,0.0,Program A,,No,2.0,3.0,2.0,5.0,4.0,2.0,4.0,4.0,1.0,1.0,4.0,,5.0,8.0,9.0,8.0,8.0,7.0,6.0,10.0,3.0,4.0,5.0,4.0,5.0,5.0,3.0,6.0,6.0,6.0,1.0,6.0,2.0,,2.0,6.0,3.0,2.0,5.0,2.0,6.0,4.0,4.0,5.0,5.0,3.0,2.0,5.0,99.0,99.0,99.0,99.0,2.0,3.0,,99.0,99.0,4.0,4.0,,4.0,4.0,99.0,2.0,1.0,4.0,6.0,99.0,1.0,1.0,1.0,99.0,,5.0,,4.0,4.0,4.0,5.0,5.0,5.0,,4.0,4.0,6.0,6.0,,6.0,5.0,1.0,,,,1.0,,,4.0,2.0,5.0,,1.0,5.0,2.0,2.0,4.0,5.0,,1.8,4.5,1.5,2.333333,4.0,4.333333,4.333333,4.5
65369,328,2020-04-03 12:44:01,EN,38,Female,PhD/Doctorate,College degree,Self-employed,United States,no,Texas,Married/cohabiting,2.0,No,Isolated,1.0,2.0,,Program D,No,3.0,1.0,4.0,3.0,2.0,2.0,3.0,3.0,4.0,1.0,3.0,3.0,3.0,3.0,5.0,1.0,1.0,4.0,1.0,3.0,0.0,6.0,6.0,6.0,6.0,6.0,0.0,5.0,5.0,5.0,2.0,2.0,5.0,,,,,,,,,,,,,,,,,,,,,,,,,,,,,,,,,,,,,,,,,,,,,,,,,,,,,,,,,,,,,,,,,,,,,,,,,,,2.8,3.0,,,,,,
65534,2369,2020-04-02 12:51:27,EN,20,Female,"Some College, short continuing education or equivalent",College degree,Student,United States,no,Texas,Single,0.0,Yes,Isolated,4.0,2.0,,Program D,No,2.0,2.0,3.0,2.0,3.0,2.0,4.0,3.0,1.0,2.0,3.0,3.0,3.0,5.0,9.0,5.0,8.0,5.0,7.0,2.0,6.0,2.0,4.0,2.0,5.0,6.0,5.0,6.0,5.0,5.0,4.0,5.0,5.0,3.0,2.0,4.0,5.0,4.0,4.0,3.0,5.0,4.0,4.0,4.0,4.0,4.0,3.0,4.0,2.0,4.0,99.0,4.0,2.0,5.0,5.0,2.0,2.0,5.0,3.0,4.0,4.0,4.0,4.0,4.0,2.0,4.0,4.0,3.0,2.0,2.0,4.0,1.0,,6.0,5.0,6.0,6.0,6.0,5.0,6.0,6.0,5.0,6.0,3.0,5.0,6.0,4.0,5.0,5.0,2.0,2.0,3.0,5.0,4.0,4.0,5.0,5.0,6.0,4.0,"Keeping a schedule, making music, doung homework, praying, hanging out with my family, and going outsode to exercise have all really helped.",2.0,5.0,2.0,4.0,3.0,4.0,,2.4,3.0,2.666667,4.0,4.0,3.666667,4.0,5.7
65536,1191,2020-04-02 12:31:45,EN,62,Female,"College degree, bachelor, master",College degree,Full time employed,United States,no,Kentucky,Married/cohabiting,0.0,Yes,Life carries on with minor changes,1.0,0.0,Program B,,No,2.0,2.0,3.0,5.0,4.0,2.0,3.0,4.0,3.0,3.0,2.0,2.0,2.0,5.0,8.0,3.0,5.0,5.0,1.0,6.0,1.0,5.0,6.0,5.0,6.0,6.0,0.0,6.0,6.0,5.0,1.0,2.0,4.0,5.0,3.0,5.0,2.0,2.0,4.0,4.0,5.0,4.0,3.0,4.0,4.0,6.0,3.0,6.0,6.0,2.0,99.0,99.0,4.0,1.0,99.0,99.0,99.0,1.0,2.0,4.0,4.0,5.0,99.0,99.0,1.0,1.0,99.0,5.0,5.0,2.0,2.0,1.0,,5.0,5.0,5.0,5.0,6.0,5.0,6.0,6.0,5.0,5.0,1.0,5.0,6.0,5.0,5.0,4.0,1.0,1.0,5.0,2.0,3.0,4.0,4.0,5.0,1.0,3.0,,1.0,4.0,2.0,3.0,4.0,4.0,,2.3,2.0,3.333333,2.333333,4.333333,4.0,5.333333,5.3
65539,3553,2020-04-02 13:10:47,SME,51,Female,PhD/Doctorate,College degree,Self-employed,United States,yes,Texas,Married/cohabiting,1.0,Yes,Isolated,1.0,0.0,Program A,,No,5.0,2.0,3.0,4.0,2.0,2.0,5.0,3.0,2.0,2.0,3.0,1.0,3.0,0.0,2.0,,1.0,0.0,,3.0,1.0,6.0,6.0,6.0,6.0,6.0,0.0,1.0,6.0,6.0,1.0,1.0,6.0,2.0,5.0,5.0,5.0,6.0,2.0,4.0,6.0,3.0,2.0,4.0,3.0,3.0,5.0,3.0,1.0,1.0,1.0,99.0,99.0,1.0,1.0,5.0,1.0,99.0,99.0,99.0,99.0,99.0,1.0,1.0,3.0,1.0,1.0,99.0,5.0,1.0,99.0,1.0,,6.0,6.0,6.0,6.0,6.0,6.0,6.0,6.0,6.0,6.0,1.0,4.0,6.0,1.0,6.0,6.0,6.0,6.0,6.0,4.0,4.0,4.0,1.0,6.0,1.0,6.0,,6.0,6.0,6.0,6.0,6.0,4.0,"Esta crisis me ha ayudado a conocer más a detalle a ciertas personas de mi círculo social, especialmente en cuanto a ser responsables o irresponsables en relación a los comportamientos que esta crisis exige de cada uno de nosotros.",2.6,2.333333,3.0,5.333333,4.333333,4.0,2.666667,6.0
65548,764,2020-04-02 12:22:40,EN,53,Female,"College degree, bachelor, master",Some College or equivalent,Self-employed,United States,no,Illinois,Single,0.0,Yes,Isolated,1.0,,,Program C,No,1.0,2.0,4.0,4.0,4.0,2.0,4.0,3.0,1.0,1.0,3.0,1.0,3.0,5.0,6.0,2.0,8.0,8.0,5.0,9.0,1.0,6.0,6.0,6.0,6.0,6.0,2.0,6.0,6.0,6.0,1.0,3.0,2.0,5.0,6.0,5.0,4.0,2.0,4.0,4.0,5.0,5.0,4.0,5.0,5.0,5.0,5.0,5.0,5.0,99.0,99.0,5.0,4.0,2.0,99.0,3.0,99.0,6.0,3.0,6.0,6.0,6.0,5.0,2.0,1.0,4.0,2.0,99.0,5.0,1.0,6.0,99.0,,5.0,3.0,4.0,5.0,6.0,6.0,5.0,6.0,5.0,5.0,2.0,2.0,6.0,1.0,4.0,6.0,1.0,1.0,6.0,4.0,6.0,5.0,2.0,5.0,3.0,2.0,,2.0,5.0,5.0,4.0,4.0,2.0,,2.0,2.333333,4.333333,3.0,4.666667,4.333333,4.0,5.0
65568,1435,2020-04-02 12:29:22,EN,47,Female,PhD/Doctorate,College degree,Self-employed,United States,no,California,Married/cohabiting,0.0,Yes,Life carries on with minor changes,1.0,0.0,Program A,,Yes,3.0,3.0,3.0,4.0,4.0,3.0,3.0,4.0,3.0,2.0,3.0,3.0,3.0,7.0,8.0,6.0,8.0,8.0,7.0,7.0,4.0,5.0,5.0,5.0,6.0,6.0,2.0,6.0,5.0,4.0,4.0,4.0,2.0,6.0,4.0,5.0,5.0,5.0,5.0,6.0,6.0,6.0,5.0,5.0,5.0,6.0,1.0,6.0,6.0,2.0,2.0,5.0,3.0,6.0,6.0,1.0,1.0,6.0,2.0,4.0,2.0,5.0,4.0,5.0,3.0,6.0,6.0,6.0,1.0,1.0,6.0,3.0,Seriously concerned about accuracy/reliability of American news sources and journalists reporting accurately about the virus in other states and countries. US media does not accurately report stories that are also covered in international newspapers from Germany and Japan.,6.0,6.0,6.0,6.0,6.0,6.0,6.0,6.0,6.0,6.0,1.0,5.0,6.0,5.0,6.0,1.0,3.0,3.0,4.0,3.0,4.0,2.0,5.0,4.0,6.0,2.0,Taking walks out in nature helps me feel more positive and hopeful.,1.0,5.0,6.0,6.0,3.0,1.0,"I believe the United States did not prepare for a pandemic of this size or scope. I believe that it sacrificed our emergency readiness over the last decade to political interests and partisan projects rather than making sure that the US was ready at the national level to provide leadership and guidance. I believe that our press has become detrimental in helping calm panic and speculation, sacrificing integrity for hot stories and ratings. I believe that if we had properly prepared and worked with the international community several months ago we could have been better prepared to deal with this virus rather than playing catch-up.",2.6,3.0,4.0,4.0,6.0,4.0,6.0,6.0
65587,801,2020-04-03 12:15:08,EN,41,Female,"College degree, bachelor, master",Up to 12 years of school,Not employed,United States,yes,TX,Married/cohabiting,2.0,Yes,Isolated,2.0,1.0,,Program D,No,3.0,4.0,5.0,3.0,4.0,3.0,4.0,3.0,3.0,4.0,2.0,2.0,3.0,7.0,9.0,8.0,9.0,9.0,9.0,8.0,6.0,5.0,6.0,4.0,5.0,4.0,4.0,5.0,6.0,6.0,2.0,4.0,4.0,5.0,5.0,3.0,5.0,5.0,3.0,4.0,2.0,5.0,1.0,4.0,5.0,5.0,3.0,5.0,,,,,,,,,,,,,,,,,,,,,,,,,,,,,,,,,,,,,,,,,,,,,,,,,,,,,,,,,,,,3.2,2.333333,4.666667,4.666667,3.666667,5.0,4.666667,
65610,538,2020-04-03 12:07:17,EN,51,Male,"College degree, bachelor, master",College degree,Full time employed,United States,no,Wisconsin,Married/cohabiting,5.0,No,Isolated,1.0,2.0,,Program D,No,2.0,2.0,4.0,3.0,3.0,2.0,3.0,4.0,3.0,3.0,2.0,2.0,3.0,5.0,8.0,6.0,6.0,6.0,8.0,1.0,8.0,4.0,4.0,4.0,4.0,4.0,5.0,6.0,3.0,2.0,4.0,6.0,4.0,5.0,4.0,3.0,4.0,4.0,2.0,4.0,4.0,3.0,4.0,5.0,6.0,4.0,4.0,4.0,,,,,,,,,,,,,,,,,,,,,,,,,,,,,,,,,,,,,,,,,,,,,,,,,,,,,,,,,,,,2.7,2.333333,4.333333,4.333333,3.666667,4.666667,3.666667,
65611,7571,2020-04-02 14:03:58,ZH-T,32,Female,PhD/Doctorate,College degree,Student,United States,yes,Massachusetts,Married/cohabiting,0.0,Yes,Isolated,1.0,0.0,Program A,,Yes,5.0,5.0,5.0,2.0,1.0,3.0,1.0,1.0,3.0,5.0,1.0,1.0,2.0,5.0,8.0,0.0,2.0,2.0,0.0,0.0,1.0,6.0,6.0,6.0,5.0,5.0,0.0,5.0,6.0,6.0,2.0,1.0,6.0,6.0,6.0,3.0,3.0,1.0,5.0,2.0,4.0,4.0,2.0,5.0,3.0,5.0,6.0,4.0,6.0,5.0,99.0,6.0,5.0,2.0,99.0,3.0,99.0,5.0,5.0,6.0,6.0,6.0,3.0,3.0,99.0,3.0,3.0,2.0,6.0,4.0,5.0,5.0,,5.0,4.0,2.0,5.0,5.0,2.0,4.0,6.0,2.0,5.0,1.0,5.0,4.0,3.0,3.0,3.0,5.0,5.0,4.0,4.0,3.0,2.0,4.0,3.0,2.0,3.0,,4.0,4.0,6.0,4.0,5.0,3.0,,4.5,1.333333,5.333333,2.0,3.333333,4.333333,3.333333,4.0
65631,788,2020-04-02 12:07:58,EN,39,Female,"College degree, bachelor, master",College degree,Self-employed,United States,no,Florida,Married/cohabiting,2.0,Yes,Life carries on with minor changes,1.0,1.0,,Program D,No,2.0,3.0,3.0,5.0,5.0,1.0,5.0,5.0,1.0,1.0,1.0,2.0,3.0,3.0,7.0,2.0,6.0,6.0,5.0,4.0,3.0,4.0,4.0,4.0,4.0,4.0,4.0,6.0,6.0,5.0,1.0,3.0,3.0,3.0,2.0,5.0,5.0,4.0,3.0,5.0,5.0,4.0,3.0,6.0,5.0,3.0,3.0,5.0,2.0,2.0,2.0,2.0,4.0,2.0,2.0,2.0,2.0,2.0,2.0,4.0,4.0,2.0,2.0,2.0,2.0,2.0,2.0,2.0,4.0,2.0,2.0,2.0,,6.0,6.0,5.0,5.0,6.0,5.0,5.0,5.0,5.0,5.0,2.0,2.0,5.0,1.0,4.0,4.0,2.0,1.0,4.0,5.0,2.0,3.0,4.0,5.0,5.0,2.0,,4.0,4.0,4.0,4.0,4.0,4.0,,1.5,2.0,2.333333,4.333333,4.666667,5.0,4.0,5.3
65652,964,2020-04-02 12:08:35,EN,19,Female,"Some College, short continuing education or equivalent",College degree,Part time employed,United States,no,Texas,Single,0.0,Yes,Life carries on with minor changes,3.0,2.0,,Program D,No,2.0,4.0,3.0,4.0,3.0,2.0,3.0,3.0,2.0,2.0,2.0,3.0,3.0,5.0,7.0,7.0,8.0,7.0,7.0,7.0,8.0,4.0,5.0,5.0,4.0,5.0,6.0,5.0,3.0,4.0,4.0,5.0,2.0,4.0,3.0,4.0,4.0,2.0,5.0,4.0,5.0,5.0,4.0,5.0,4.0,5.0,4.0,4.0,2.0,4.0,99.0,4.0,3.0,4.0,6.0,2.0,4.0,5.0,4.0,4.0,4.0,5.0,4.0,4.0,3.0,4.0,4.0,3.0,3.0,3.0,5.0,2.0,,5.0,4.0,5.0,4.0,5.0,5.0,5.0,4.0,5.0,5.0,5.0,5.0,4.0,5.0,5.0,4.0,2.0,2.0,2.0,4.0,3.0,4.0,5.0,4.0,5.0,4.0,,5.0,4.0,2.0,5.0,2.0,2.0,,2.6,2.666667,3.333333,2.666667,4.666667,4.0,4.0,4.7
65683,1416,2020-04-02 12:11:08,EN,70,Female,"College degree, bachelor, master",Up to 12 years of school,Retired,United States,no,California,Married/cohabiting,0.0,Yes,Isolated,1.0,0.0,,Program D,No,2.0,3.0,2.0,4.0,4.0,2.0,5.0,4.0,1.0,2.0,1.0,1.0,3.0,7.0,9.0,3.0,9.0,9.0,8.0,9.0,2.0,6.0,6.0,6.0,6.0,6.0,0.0,6.0,6.0,5.0,2.0,4.0,3.0,4.0,4.0,4.0,5.0,1.0,5.0,6.0,6.0,6.0,4.0,5.0,5.0,5.0,1.0,6.0,2.0,5.0,1.0,99.0,3.0,6.0,1.0,1.0,1.0,6.0,3.0,5.0,5.0,5.0,1.0,2.0,1.0,1.0,2.0,1.0,2.0,1.0,4.0,6.0,,6.0,6.0,5.0,6.0,6.0,6.0,6.0,6.0,6.0,6.0,2.0,3.0,5.0,2.0,5.0,5.0,1.0,1.0,5.0,3.0,4.0,2.0,4.0,6.0,1.0,1.0,,5.0,4.0,4.0,3.0,4.0,3.0,"It worries me to my core that our current Federal administration seems utterly incompetent at governing but skilled at funneling money to their own pockets. That decisions at the Federal level seem to be made based on whether those in charge at the front lines (governors, mayors, etc.) are sufficiently obsequious, not on the basis of their need for services or goods. The administration appears to discount expertise and scientific data, and actively advise that domain experts be ignored.",1.9,1.666667,3.666667,2.666667,6.0,4.333333,5.666667,5.9
65746,2247,2020-04-02 12:17:15,EN,20,Female,"Some College, short continuing education or equivalent",Some College or equivalent,Student,United States,no,Texas,Single,0.0,No,Isolated,3.0,0.0,Program A,,No,5.0,5.0,5.0,3.0,2.0,3.0,3.0,3.0,5.0,3.0,4.0,3.0,4.0,3.0,7.0,,3.0,4.0,,6.0,,3.0,4.0,4.0,6.0,6.0,0.0,5.0,6.0,5.0,2.0,4.0,3.0,4.0,6.0,3.0,4.0,1.0,5.0,5.0,6.0,6.0,1.0,4.0,5.0,3.0,3.0,5.0,99.0,5.0,99.0,99.0,5.0,4.0,3.0,4.0,2.0,4.0,5.0,5.0,5.0,4.0,6.0,6.0,4.0,6.0,4.0,5.0,6.0,3.0,6.0,4.0,,5.0,3.0,3.0,6.0,5.0,6.0,5.0,5.0,5.0,5.0,1.0,4.0,4.0,6.0,6.0,4.0,3.0,5.0,5.0,2.0,3.0,2.0,5.0,4.0,2.0,2.0,,4.0,4.0,2.0,2.0,3.0,1.0,,3.9,3.666667,4.666667,2.333333,5.666667,5.0,4.0,4.8
65772,620,2020-04-02 11:45:45,EN,67,Male,"College degree, bachelor, master",Some College or equivalent,Self-employed,United States,no,California,Married/cohabiting,0.0,Yes,Isolated,1.0,0.0,Program A,,No,3.0,3.0,3.0,4.0,3.0,2.0,4.0,3.0,2.0,2.0,3.0,3.0,4.0,7.0,9.0,4.0,6.0,7.0,6.0,8.0,2.0,5.0,5.0,5.0,5.0,6.0,1.0,5.0,4.0,4.0,2.0,4.0,5.0,2.0,2.0,5.0,4.0,4.0,3.0,4.0,5.0,5.0,2.0,4.0,5.0,4.0,4.0,5.0,3.0,1.0,2.0,3.0,3.0,6.0,3.0,2.0,99.0,6.0,5.0,6.0,5.0,6.0,2.0,4.0,3.0,4.0,5.0,3.0,2.0,3.0,6.0,5.0,,5.0,5.0,5.0,5.0,5.0,5.0,5.0,5.0,5.0,5.0,4.0,3.0,5.0,3.0,6.0,4.0,3.0,3.0,4.0,3.0,2.0,4.0,3.0,4.0,4.0,4.0,,5.0,5.0,5.0,4.0,5.0,4.0,,2.5,3.333333,2.0,4.0,4.666667,4.666667,4.0,5.0
65812,766,2020-04-02 11:40:51,EN,50,Female,"College degree, bachelor, master",PhD/Doctorate,Retired,United States,no,MN,Married/cohabiting,1.0,Yes,Life carries on with minor changes,2.0,0.0,,Program D,No,3.0,3.0,4.0,4.0,3.0,3.0,4.0,2.0,3.0,3.0,1.0,2.0,2.0,5.0,6.0,0.0,2.0,4.0,4.0,10.0,1.0,4.0,5.0,5.0,6.0,6.0,0.0,5.0,4.0,4.0,2.0,2.0,4.0,5.0,5.0,4.0,5.0,2.0,2.0,6.0,6.0,6.0,5.0,5.0,5.0,5.0,5.0,5.0,2.0,5.0,2.0,2.0,3.0,3.0,1.0,4.0,1.0,6.0,2.0,6.0,5.0,6.0,1.0,1.0,2.0,4.0,6.0,2.0,2.0,2.0,6.0,2.0,,6.0,6.0,6.0,6.0,6.0,6.0,6.0,6.0,6.0,6.0,1.0,6.0,4.0,1.0,5.0,6.0,5.0,1.0,5.0,6.0,6.0,1.0,4.0,6.0,1.0,2.0,,5.0,5.0,5.0,5.0,5.0,4.0,,3.0,1.666667,4.333333,4.0,6.0,4.0,4.0,6.0
65849,2834,2020-04-03 12:10:54,EN,37,Male,"College degree, bachelor, master",Up to 6 years of school,Full time employed,United States,no,new york,Single,1.0,Yes,Isolated,1.0,0.0,,Program D,No,3.0,2.0,3.0,4.0,3.0,2.0,4.0,3.0,3.0,1.0,2.0,2.0,3.0,5.0,9.0,7.0,7.0,8.0,7.0,7.0,7.0,6.0,6.0,5.0,5.0,5.0,5.0,4.0,4.0,4.0,2.0,2.0,4.0,5.0,5.0,3.0,5.0,4.0,3.0,4.0,4.0,4.0,5.0,4.0,4.0,4.0,3.0,4.0,3.0,4.0,2.0,5.0,4.0,2.0,2.0,3.0,2.0,6.0,5.0,5.0,4.0,2.0,3.0,4.0,2.0,4.0,3.0,2.0,2.0,4.0,5.0,3.0,,5.0,4.0,4.0,5.0,5.0,5.0,4.0,5.0,4.0,5.0,5.0,5.0,5.0,3.0,4.0,2.0,3.0,5.0,5.0,2.0,3.0,4.0,5.0,4.0,2.0,5.0,,5.0,4.0,5.0,5.0,4.0,2.0,"lucky to have a job where i can work from home. but my company have had some layoffs already.  some of my friends / coworkers were affected.  i hope they will pull through. the briefings from NY executive branch says that the state needs supplies. i hope that when we arrive to the apex, that we will be apt and equipped to save all the lives relying on them.",2.4,2.333333,4.666667,4.333333,4.0,3.333333,4.0,4.6
65882,23210,2020-04-02 17:46:02,EN,43,Female,PhD/Doctorate,College degree,Full time employed,United States,yes,NY,Married/cohabiting,1.0,Yes,Isolated,2.0,0.0,,,,5.0,4.0,5.0,5.0,2.0,2.0,4.0,4.0,5.0,2.0,2.0,2.0,4.0,5.0,9.0,1.0,5.0,8.0,1.0,10.0,1.0,2.0,6.0,2.0,4.0,6.0,2.0,5.0,6.0,6.0,4.0,2.0,2.0,5.0,2.0,5.0,5.0,5.0,2.0,6.0,6.0,5.0,2.0,4.0,6.0,6.0,2.0,5.0,4.0,6.0,99.0,99.0,4.0,6.0,99.0,5.0,99.0,5.0,5.0,5.0,6.0,6.0,6.0,5.0,1.0,4.0,4.0,4.0,5.0,2.0,6.0,6.0,,1.0,6.0,5.0,6.0,6.0,6.0,6.0,6.0,6.0,1.0,4.0,1.0,6.0,1.0,5.0,5.0,1.0,1.0,5.0,5.0,5.0,4.0,5.0,5.0,1.0,5.0,,5.0,5.0,5.0,5.0,5.0,5.0,,3.2,2.666667,3.0,5.0,5.666667,5.0,5.333333,4.9
65887,184,2020-04-03 11:22:07,EN,45,Female,"College degree, bachelor, master",Up to 12 years of school,Full time employed,United States,no,WI,Married/cohabiting,2.0,Yes,Isolated,2.0,0.0,,Program C,,,,,,,,,,,,,,,,,,,,,,,,,,,,,,,,,,,,,,,,,,,,,,,,,,,,,,,,,,,,,,,,,,,,,,,,,,,,,,,,,,,,,,,,,,,,,,,,,,,,,,,,,,,,,,,,,,,,
65893,1303,2020-04-03 11:40:19,EN,47,Female,"College degree, bachelor, master",College degree,Full time employed,United States,yes,Florida,Divorced/widowed,1.0,No,Isolated,2.0,0.0,Program A,,No,2.0,4.0,4.0,3.0,4.0,4.0,3.0,4.0,3.0,4.0,4.0,4.0,4.0,8.0,8.0,5.0,7.0,7.0,6.0,8.0,4.0,4.0,4.0,4.0,5.0,6.0,2.0,6.0,5.0,5.0,2.0,4.0,4.0,3.0,2.0,5.0,5.0,5.0,2.0,3.0,3.0,2.0,3.0,5.0,5.0,2.0,2.0,5.0,3.0,4.0,4.0,4.0,2.0,4.0,1.0,3.0,99.0,4.0,3.0,4.0,4.0,4.0,4.0,4.0,3.0,4.0,4.0,3.0,1.0,3.0,5.0,3.0,,5.0,5.0,5.0,5.0,5.0,5.0,5.0,5.0,5.0,5.0,2.0,4.0,4.0,1.0,5.0,4.0,1.0,1.0,5.0,4.0,3.0,3.0,4.0,2.0,3.0,4.0,,4.0,4.0,4.0,4.0,5.0,4.0,,3.1,4.0,2.333333,5.0,2.666667,4.666667,4.0,5.0
65914,3155,2020-04-02 12:07:34,EN,18,Female,Up to 12 years of school,Some College or equivalent,Student,United States,yes,Texas,Single,0.0,Yes,Isolated,3.0,0.0,,Program D,No,3.0,4.0,5.0,3.0,3.0,5.0,3.0,3.0,4.0,2.0,5.0,5.0,4.0,6.0,8.0,7.0,4.0,7.0,8.0,9.0,6.0,6.0,6.0,6.0,6.0,5.0,0.0,4.0,6.0,6.0,3.0,2.0,6.0,4.0,4.0,4.0,6.0,5.0,2.0,2.0,4.0,2.0,2.0,2.0,5.0,6.0,2.0,5.0,2.0,4.0,99.0,99.0,3.0,2.0,1.0,6.0,99.0,4.0,4.0,6.0,6.0,6.0,4.0,4.0,3.0,5.0,3.0,4.0,3.0,3.0,6.0,5.0,,5.0,6.0,4.0,4.0,5.0,5.0,5.0,5.0,4.0,5.0,4.0,4.0,6.0,2.0,2.0,4.0,1.0,1.0,6.0,4.0,4.0,5.0,5.0,6.0,3.0,4.0,,5.0,5.0,5.0,5.0,5.0,1.0,"In my day to day life, I like going out to eat or shopping with friends or family, but I also like an evening at home and just relaxing. I do not necessarily consider staying at home all the time as a punishment. I have been in quarantine for almost two weeks now, and I have felt mentally weak from the beginning. I am worried about my grandparents, who live 5000 miles away, and how/when this situation will end, yet I do not know why I feel so restless. There is nothing more I can do about the situation at this point, so I wonder why I cannot let it go and find some mental rest.",3.5,4.666667,3.666667,5.333333,2.666667,4.0,5.333333,4.8
65922,798,2020-04-02 11:26:54,EN,31,Female,"College degree, bachelor, master",College degree,Full time employed,United States,no,Minnesota,Married/cohabiting,1.0,Yes,Isolated,2.0,0.0,,Program C,No,3.0,3.0,4.0,4.0,3.0,2.0,3.0,4.0,3.0,2.0,2.0,2.0,3.0,7.0,9.0,2.0,1.0,3.0,6.0,9.0,2.0,2.0,5.0,4.0,6.0,6.0,0.0,5.0,4.0,5.0,4.0,3.0,2.0,5.0,6.0,4.0,4.0,4.0,3.0,4.0,5.0,3.0,2.0,5.0,5.0,4.0,3.0,5.0,2.0,3.0,99.0,4.0,4.0,3.0,1.0,4.0,99.0,5.0,4.0,4.0,4.0,6.0,2.0,2.0,3.0,2.0,3.0,5.0,2.0,3.0,2.0,1.0,"I am less worried about performing my work well versus how the nature of my work will change, and whether my workplace will view me as ""at capacity"" enough.",3.0,6.0,5.0,5.0,4.0,4.0,4.0,6.0,2.0,3.0,3.0,5.0,5.0,1.0,3.0,4.0,6.0,6.0,5.0,6.0,5.0,4.0,4.0,5.0,1.0,4.0,,3.0,4.0,5.0,2.0,3.0,2.0,,2.7,2.333333,4.666667,4.0,4.0,5.0,4.333333,4.2
65933,1261,2020-04-02 11:33:13,EN,29,Male,"Some College, short continuing education or equivalent",College degree,Self-employed,United States,no,Texas,Single,0.0,Yes,Life carries on with minor changes,2.0,0.0,,Program D,No,3.0,2.0,3.0,3.0,2.0,3.0,3.0,2.0,3.0,4.0,4.0,4.0,3.0,5.0,6.0,3.0,0.0,5.0,0.0,6.0,0.0,5.0,6.0,5.0,6.0,5.0,0.0,3.0,3.0,3.0,4.0,1.0,3.0,4.0,3.0,4.0,5.0,5.0,4.0,6.0,6.0,6.0,5.0,3.0,4.0,4.0,5.0,5.0,6.0,5.0,99.0,6.0,2.0,4.0,1.0,3.0,99.0,2.0,3.0,5.0,5.0,5.0,99.0,99.0,2.0,5.0,4.0,3.0,3.0,2.0,5.0,4.0,,4.0,3.0,3.0,4.0,4.0,4.0,3.0,4.0,3.0,5.0,3.0,4.0,3.0,3.0,3.0,3.0,4.0,4.0,4.0,3.0,4.0,3.0,1.0,5.0,1.0,3.0,,4.0,4.0,4.0,4.0,4.0,2.0,"My work has me travel to multiple locations a day and I'm not financially stable enough to adhere to the guidelines given to reduce the spread. I wish that for the time being I could help ""flatten the curve"" without damaging my debts or livelihood.",3.2,3.666667,3.333333,4.333333,6.0,3.0,3.666667,3.7
66030,1419,2020-04-02 11:22:58,EN,34,Female,"College degree, bachelor, master",Up to 12 years of school,Not employed,United States,no,New Mexico,Married/cohabiting,4.0,No,Life carries on with minor changes,1.0,4.0,,Program C,No,3.0,2.0,3.0,4.0,3.0,3.0,3.0,3.0,3.0,2.0,3.0,3.0,4.0,7.0,9.0,4.0,6.0,6.0,6.0,7.0,5.0,5.0,4.0,6.0,5.0,5.0,5.0,5.0,5.0,5.0,5.0,4.0,2.0,5.0,3.0,3.0,6.0,6.0,3.0,4.0,4.0,4.0,4.0,5.0,6.0,3.0,3.0,4.0,2.0,3.0,4.0,2.0,3.0,6.0,2.0,2.0,6.0,2.0,3.0,4.0,4.0,4.0,99.0,4.0,4.0,5.0,5.0,2.0,2.0,2.0,5.0,2.0,,4.0,5.0,5.0,5.0,5.0,6.0,5.0,6.0,6.0,5.0,4.0,6.0,6.0,6.0,6.0,6.0,4.0,5.0,3.0,5.0,4.0,6.0,5.0,,6.0,4.0,,5.0,4.0,5.0,6.0,4.0,3.0,,2.7,3.333333,4.0,5.333333,4.0,4.666667,3.666667,5.2
66055,1564,2020-04-02 11:22:16,EN,43,Female,"College degree, bachelor, master",Up to 12 years of school,Not employed,United States,no,Texas,Single,0.0,Yes,Isolated,1.0,0.0,,Program D,No,3.0,3.0,3.0,3.0,2.0,3.0,3.0,1.0,3.0,3.0,4.0,1.0,3.0,5.0,7.0,0.0,3.0,3.0,5.0,3.0,,5.0,4.0,5.0,5.0,5.0,0.0,4.0,5.0,5.0,4.0,2.0,1.0,5.0,5.0,4.0,3.0,2.0,5.0,4.0,6.0,5.0,4.0,4.0,5.0,6.0,3.0,4.0,6.0,99.0,99.0,6.0,4.0,5.0,99.0,4.0,99.0,5.0,2.0,5.0,4.0,5.0,99.0,4.0,4.0,5.0,5.0,4.0,4.0,3.0,5.0,4.0,I got laid off due to this and that is my largest concern.,5.0,4.0,4.0,5.0,5.0,5.0,5.0,2.0,4.0,5.0,1.0,3.0,4.0,2.0,4.0,1.0,4.0,4.0,4.0,4.0,2.0,1.0,1.0,3.0,1.0,1.0,O,4.0,2.0,2.0,3.0,5.0,2.0,I got laid off and my industry has been shut down due to the pandemic. This is my major concern and worry. Losing my health insurance also worries me.,3.3,2.666667,4.333333,2.333333,5.0,4.0,4.666667,4.4
66078,605,2020-04-02 11:01:29,EN,41,Female,"Some College, short continuing education or equivalent",College degree,Self-employed,United States,no,Virginia,Single,0.0,Yes,Isolated,2.0,0.0,Program A,,No,4.0,3.0,5.0,1.0,1.0,4.0,1.0,1.0,3.0,4.0,3.0,3.0,3.0,6.0,8.0,0.0,2.0,5.0,0.0,6.0,0.0,6.0,5.0,6.0,,5.0,1.0,6.0,6.0,5.0,3.0,3.0,5.0,5.0,5.0,5.0,3.0,1.0,4.0,5.0,6.0,4.0,4.0,5.0,6.0,4.0,5.0,5.0,6.0,6.0,99.0,6.0,6.0,99.0,99.0,3.0,99.0,3.0,5.0,6.0,6.0,6.0,6.0,4.0,4.0,5.0,6.0,99.0,5.0,3.0,6.0,99.0,,5.0,5.0,5.0,4.0,5.0,4.0,5.0,5.0,5.0,5.0,3.0,4.0,5.0,1.0,5.0,3.0,1.0,1.0,5.0,4.0,5.0,5.0,2.0,5.0,5.0,4.0,,4.0,5.0,5.0,4.0,5.0,2.0,"Being unable to work, but not having any income. I need medications, but dont have money to get them.",4.3,3.0,4.0,2.333333,5.0,4.666667,3.666667,4.8
66086,986,2020-04-02 11:06:46,EN,52,Female,"Some College, short continuing education or equivalent",College degree,Full time employed,United States,no,Michigan,Married/cohabiting,1.0,Yes,Isolated,1.0,0.0,,Program D,No,2.0,4.0,4.0,4.0,3.0,,4.0,3.0,2.0,5.0,1.0,1.0,2.0,8.0,8.0,5.0,7.0,8.0,8.0,10.0,4.0,5.0,6.0,6.0,4.0,4.0,3.0,6.0,5.0,5.0,2.0,2.0,3.0,4.0,3.0,5.0,5.0,2.0,4.0,4.0,5.0,5.0,3.0,1.0,5.0,3.0,4.0,5.0,6.0,6.0,99.0,5.0,1.0,5.0,4.0,4.0,99.0,5.0,3.0,5.0,5.0,4.0,99.0,4.0,1.0,2.0,3.0,2.0,4.0,2.0,6.0,1.0,Convincing others of the severity of situation,5.0,5.0,4.0,5.0,5.0,5.0,5.0,5.0,5.0,5.0,2.0,4.0,5.0,4.0,5.0,4.0,3.0,3.0,4.0,4.0,3.0,3.0,5.0,4.0,3.0,4.0,,2.0,5.0,5.0,2.0,5.0,2.0,I can't get my husband to stop browsing in stores because he's bored.,3.0,1.333333,3.0,3.333333,4.666667,3.333333,3.666667,4.9
66099,706,2020-04-02 11:00:53,EN,20,Female,"Some College, short continuing education or equivalent",College degree,Full time employed,United States,no,Texas,Single,0.0,Yes,Life carries on with minor changes,2.0,2.0,,Program C,Yes,3.0,3.0,4.0,3.0,3.0,3.0,3.0,3.0,3.0,3.0,3.0,3.0,3.0,3.0,6.0,4.0,4.0,3.0,3.0,5.0,3.0,6.0,6.0,6.0,6.0,6.0,2.0,6.0,6.0,6.0,6.0,4.0,4.0,5.0,5.0,4.0,6.0,4.0,4.0,6.0,6.0,6.0,1.0,4.0,5.0,5.0,5.0,4.0,3.0,5.0,5.0,5.0,5.0,4.0,3.0,3.0,3.0,5.0,4.0,5.0,5.0,5.0,5.0,4.0,2.0,4.0,5.0,4.0,5.0,4.0,5.0,6.0,,5.0,5.0,5.0,5.0,5.0,5.0,5.0,5.0,4.0,5.0,4.0,4.0,5.0,4.0,4.0,4.0,6.0,5.0,4.0,5.0,4.0,4.0,4.0,5.0,6.0,4.0,,4.0,4.0,4.0,4.0,4.0,2.0,,3.1,3.0,4.333333,4.333333,6.0,5.0,3.666667,4.9
66122,4570,2020-04-02 12:01:18,EN,40,Male,"College degree, bachelor, master",Some College or equivalent,Not employed,United States,no,Virginia,Married/cohabiting,1.0,Yes,Isolated,4.0,1.0,,Program C,No,1.0,3.0,4.0,4.0,3.0,2.0,4.0,4.0,3.0,3.0,1.0,2.0,2.0,5.0,8.0,3.0,6.0,4.0,4.0,7.0,1.0,2.0,5.0,5.0,6.0,6.0,0.0,5.0,5.0,5.0,2.0,1.0,4.0,5.0,6.0,6.0,5.0,3.0,5.0,4.0,6.0,5.0,2.0,4.0,5.0,4.0,2.0,6.0,6.0,99.0,2.0,5.0,4.0,5.0,4.0,2.0,3.0,5.0,4.0,5.0,5.0,4.0,6.0,4.0,1.0,3.0,5.0,5.0,4.0,2.0,6.0,2.0,,5.0,5.0,5.0,6.0,5.0,5.0,5.0,6.0,5.0,6.0,3.0,2.0,5.0,2.0,2.0,4.0,5.0,5.0,4.0,4.0,5.0,2.0,2.0,5.0,4.0,1.0,,2.0,6.0,3.0,5.0,3.0,3.0,,2.5,1.666667,4.0,3.333333,5.0,4.666667,5.0,5.3
66133,1088,2020-04-02 11:01:51,EN,47,Female,"College degree, bachelor, master",College degree,Not employed,United States,no,Virginia,Married/cohabiting,3.0,Yes,Isolated,3.0,0.0,,Program C,No,2.0,4.0,4.0,4.0,3.0,4.0,3.0,2.0,3.0,1.0,1.0,1.0,1.0,7.0,5.0,1.0,3.0,6.0,1.0,6.0,1.0,4.0,4.0,4.0,6.0,6.0,1.0,4.0,5.0,5.0,2.0,3.0,6.0,5.0,4.0,2.0,5.0,4.0,4.0,5.0,4.0,4.0,2.0,5.0,6.0,5.0,6.0,2.0,99.0,99.0,4.0,99.0,99.0,5.0,99.0,5.0,99.0,4.0,3.0,4.0,5.0,6.0,4.0,2.0,2.0,99.0,99.0,3.0,5.0,4.0,5.0,99.0,,6.0,6.0,6.0,6.0,6.0,6.0,6.0,6.0,6.0,6.0,2.0,6.0,4.0,2.0,5.0,6.0,6.0,5.0,6.0,5.0,2.0,5.0,3.0,4.0,1.0,3.0,,2.0,5.0,5.0,3.0,6.0,4.0,,3.0,1.0,4.666667,4.0,4.333333,5.333333,2.666667,6.0
66165,484,2020-04-03 10:47:22,EN,56,Male,"College degree, bachelor, master",Up to 12 years of school,Self-employed,United States,no,Georgia,Divorced/widowed,1.0,Yes,Life carries on with minor changes,1.0,0.0,Program A,,No,2.0,2.0,2.0,4.0,4.0,2.0,4.0,4.0,3.0,2.0,3.0,2.0,2.0,7.0,9.0,5.0,,6.0,5.0,6.0,1.0,5.0,6.0,6.0,5.0,5.0,1.0,5.0,5.0,5.0,2.0,5.0,4.0,4.0,2.0,5.0,4.0,3.0,6.0,5.0,6.0,6.0,4.0,4.0,4.0,6.0,2.0,6.0,3.0,2.0,2.0,2.0,2.0,2.0,2.0,4.0,99.0,4.0,2.0,4.0,5.0,5.0,1.0,2.0,3.0,3.0,2.0,2.0,4.0,2.0,4.0,2.0,,,,,,,,,,,,,,,,,,,,,,,,,,,,,,,,,,,,2.1,2.333333,2.666667,2.666667,5.666667,3.666667,5.666667,
66225,887,2020-04-02 10:46:03,EN,39,Female,Up to 12 years of school,Up to 9 years of school,Full time employed,United States,no,TX,Married/cohabiting,5.0,Yes,Life carries on with minor changes,,,Program A,,No,3.0,4.0,5.0,5.0,2.0,3.0,5.0,3.0,2.0,1.0,1.0,1.0,2.0,4.0,2.0,5.0,5.0,5.0,8.0,5.0,5.0,2.0,6.0,6.0,6.0,5.0,3.0,6.0,6.0,6.0,2.0,1.0,2.0,6.0,1.0,6.0,3.0,3.0,6.0,5.0,6.0,1.0,2.0,6.0,6.0,4.0,1.0,6.0,5.0,1.0,6.0,99.0,4.0,5.0,2.0,2.0,1.0,6.0,5.0,6.0,6.0,5.0,99.0,99.0,2.0,1.0,6.0,1.0,6.0,6.0,5.0,6.0,,6.0,6.0,6.0,6.0,6.0,6.0,6.0,6.0,6.0,6.0,2.0,2.0,5.0,1.0,2.0,4.0,1.0,1.0,6.0,4.0,5.0,2.0,2.0,5.0,4.0,5.0,,2.0,2.0,2.0,2.0,2.0,1.0,"I believe that Essential workers matter, grocery stores and banks should not be essential 7 days a week. We should value their lives and their families lives as well",2.7,1.333333,2.666667,2.333333,4.0,5.666667,5.333333,6.0
66231,1616,2020-04-02 10:56:45,LT,28,Female,PhD/Doctorate,College degree,Student,United States,yes,Connecticut,Single,0.0,Yes,Isolated,0.0,0.0,,Program D,No,3.0,3.0,2.0,4.0,3.0,4.0,3.0,4.0,2.0,2.0,2.0,3.0,2.0,6.0,9.0,5.0,6.0,6.0,6.0,8.0,5.0,4.0,6.0,6.0,6.0,6.0,3.0,5.0,5.0,5.0,2.0,4.0,4.0,4.0,4.0,3.0,4.0,5.0,4.0,4.0,5.0,5.0,3.0,4.0,5.0,4.0,4.0,4.0,3.0,5.0,2.0,5.0,4.0,4.0,4.0,3.0,1.0,5.0,3.0,6.0,6.0,6.0,6.0,3.0,3.0,3.0,3.0,4.0,4.0,3.0,4.0,3.0,,6.0,6.0,6.0,6.0,6.0,5.0,6.0,6.0,5.0,6.0,4.0,4.0,6.0,4.0,5.0,4.0,5.0,4.0,3.0,4.0,4.0,5.0,5.0,5.0,4.0,5.0,,3.0,5.0,4.0,5.0,3.0,4.0,Klausiu biologu apie koronavirusa.,2.6,2.333333,4.0,4.0,4.666667,4.333333,3.666667,5.8
66287,896,2020-04-03 10:38:08,EN,67,Female,"College degree, bachelor, master",Up to 12 years of school,Retired,United States,no,New Mexico,Married/cohabiting,0.0,Yes,Isolated,1.0,0.0,,Program D,No,2.0,2.0,3.0,5.0,4.0,1.0,4.0,4.0,4.0,1.0,2.0,1.0,2.0,6.0,7.0,5.0,5.0,5.0,8.0,9.0,0.0,6.0,6.0,6.0,6.0,6.0,0.0,6.0,6.0,6.0,1.0,2.0,4.0,3.0,3.0,5.0,5.0,5.0,2.0,5.0,5.0,4.0,3.0,4.0,5.0,4.0,3.0,5.0,2.0,3.0,2.0,2.0,2.0,2.0,1.0,2.0,2.0,2.0,3.0,6.0,6.0,6.0,2.0,3.0,2.0,2.0,3.0,2.0,2.0,2.0,4.0,2.0,,5.0,5.0,5.0,5.0,5.0,5.0,5.0,5.0,4.0,5.0,3.0,2.0,5.0,1.0,4.0,4.0,4.0,4.0,5.0,4.0,5.0,4.0,4.0,5.0,1.0,4.0,,2.0,1.0,4.0,4.0,4.0,3.0,,2.0,1.666667,2.666667,5.0,4.666667,4.333333,4.333333,4.9
66331,1087,2020-04-03 10:36:31,EN,58,Female,"Some College, short continuing education or equivalent",Up to 12 years of school,Self-employed,United States,no,Virginia,Divorced/widowed,1.0,Yes,Life carries on with minor changes,1.0,0.0,Program A,,Not sure,3.0,3.0,4.0,3.0,2.0,3.0,3.0,3.0,2.0,3.0,1.0,2.0,3.0,5.0,8.0,3.0,5.0,8.0,0.0,8.0,1.0,5.0,5.0,5.0,6.0,5.0,1.0,5.0,5.0,5.0,3.0,3.0,2.0,5.0,2.0,5.0,3.0,3.0,5.0,5.0,5.0,4.0,4.0,5.0,5.0,5.0,4.0,5.0,6.0,5.0,99.0,5.0,4.0,4.0,99.0,2.0,99.0,5.0,3.0,5.0,6.0,6.0,99.0,4.0,3.0,99.0,99.0,99.0,4.0,4.0,5.0,99.0,,3.0,4.0,5.0,4.0,4.0,4.0,4.0,5.0,4.0,4.0,3.0,3.0,2.0,2.0,2.0,4.0,2.0,2.0,4.0,4.0,4.0,3.0,5.0,4.0,4.0,2.0,,2.0,4.0,4.0,3.0,4.0,2.0,"The US government is run by buffoons. I trust Dr. Fauci, but not the administration. They have bungled this whole thing from day one.",3.1,2.0,3.0,2.666667,4.666667,4.333333,4.333333,4.1
66336,904,2020-04-02 10:33:03,EN,20,Female,"Some College, short continuing education or equivalent",College degree,Student,United States,no,Texas,Single,0.0,Yes,Isolated,3.0,0.0,,Program D,No,3.0,1.0,3.0,4.0,3.0,2.0,4.0,3.0,1.0,3.0,1.0,1.0,2.0,3.0,10.0,4.0,6.0,5.0,6.0,6.0,3.0,2.0,3.0,3.0,4.0,4.0,0.0,3.0,6.0,6.0,1.0,2.0,5.0,1.0,4.0,4.0,4.0,1.0,6.0,5.0,6.0,4.0,1.0,5.0,6.0,4.0,6.0,4.0,1.0,6.0,99.0,4.0,4.0,2.0,1.0,4.0,99.0,,99.0,2.0,2.0,3.0,5.0,1.0,3.0,4.0,2.0,2.0,3.0,1.0,4.0,1.0,,5.0,5.0,5.0,5.0,5.0,4.0,5.0,5.0,5.0,6.0,3.0,4.0,5.0,1.0,1.0,6.0,,6.0,6.0,4.0,4.0,3.0,4.0,6.0,3.0,4.0,,4.0,4.0,4.0,3.0,5.0,3.0,,2.3,1.333333,2.666667,2.0,5.0,5.666667,3.0,5.0
66355,562,2020-04-02 10:24:30,EN,22,Female,"College degree, bachelor, master",Some College or equivalent,Student,United States,no,Texas,Single,0.0,Yes,Isolated,4.0,0.0,Program A,,No,4.0,3.0,4.0,3.0,3.0,3.0,3.0,3.0,3.0,3.0,3.0,3.0,3.0,6.0,8.0,6.0,6.0,6.0,6.0,8.0,6.0,4.0,5.0,5.0,5.0,5.0,4.0,4.0,5.0,5.0,3.0,4.0,4.0,4.0,4.0,4.0,5.0,4.0,3.0,4.0,5.0,4.0,2.0,4.0,5.0,5.0,4.0,5.0,5.0,4.0,4.0,5.0,5.0,3.0,4.0,5.0,2.0,5.0,4.0,4.0,5.0,5.0,4.0,3.0,3.0,5.0,3.0,3.0,4.0,3.0,5.0,5.0,,5.0,5.0,5.0,5.0,4.0,5.0,5.0,5.0,5.0,5.0,4.0,5.0,5.0,5.0,5.0,4.0,4.0,4.0,5.0,4.0,4.0,4.0,4.0,5.0,5.0,4.0,,4.0,3.0,3.0,4.0,4.0,3.0,,3.2,3.0,3.666667,4.333333,4.333333,4.666667,4.333333,4.9
66391,1101,2020-04-02 10:30:13,EN,21,Female,"Some College, short continuing education or equivalent",Up to 9 years of school,Full time employed,United States,no,texas,Single,3.0,Yes,Life carries on with minor changes,3.0,2.0,Program A,,No,3.0,4.0,4.0,3.0,3.0,4.0,3.0,2.0,3.0,3.0,4.0,4.0,2.0,3.0,7.0,3.0,4.0,4.0,1.0,4.0,5.0,4.0,6.0,5.0,6.0,6.0,5.0,4.0,3.0,5.0,2.0,3.0,4.0,5.0,4.0,4.0,4.0,5.0,3.0,4.0,4.0,4.0,4.0,3.0,4.0,5.0,4.0,4.0,6.0,6.0,99.0,4.0,6.0,6.0,99.0,5.0,5.0,6.0,5.0,6.0,6.0,5.0,6.0,6.0,4.0,99.0,5.0,4.0,6.0,5.0,6.0,6.0,,6.0,5.0,5.0,5.0,5.0,4.0,5.0,4.0,5.0,6.0,4.0,5.0,5.0,3.0,3.0,5.0,5.0,5.0,4.0,3.0,2.0,4.0,4.0,4.0,1.0,5.0,,5.0,3.0,5.0,5.0,4.0,3.0,,3.4,3.333333,4.0,4.333333,4.0,3.333333,4.0,5.0
66440,1079,2020-04-03 10:22:21,EN,68,Female,"College degree, bachelor, master",Up to 12 years of school,Retired,United States,no,Kansas,Married/cohabiting,0.0,Yes,Isolated,2.0,0.0,Program A,,No,2.0,2.0,3.0,5.0,4.0,2.0,5.0,5.0,2.0,2.0,2.0,3.0,3.0,5.0,7.0,6.0,7.0,5.0,3.0,10.0,1.0,4.0,5.0,5.0,5.0,5.0,1.0,5.0,5.0,5.0,1.0,3.0,1.0,4.0,4.0,5.0,4.0,2.0,5.0,5.0,4.0,6.0,4.0,5.0,5.0,4.0,2.0,5.0,99.0,99.0,99.0,2.0,4.0,2.0,99.0,2.0,99.0,4.0,2.0,4.0,5.0,5.0,99.0,1.0,2.0,2.0,2.0,99.0,4.0,2.0,4.0,99.0,,,,,,,,,,,,,,,,,,,,,,,,,,,,,,,,,,,,1.8,2.666667,3.333333,2.666667,5.0,4.333333,4.666667,
66499,821,2020-04-02 10:09:09,FR,49,Female,"Some College, short continuing education or equivalent",Up to 6 years of school,Not employed,United States,yes,NEW JERSEY,Married/cohabiting,4.0,Yes,Life carries on with minor changes,3.0,0.0,,Program D,No,3.0,2.0,2.0,5.0,4.0,2.0,5.0,5.0,3.0,2.0,1.0,2.0,2.0,7.0,8.0,7.0,7.0,8.0,9.0,5.0,8.0,5.0,5.0,5.0,5.0,5.0,5.0,6.0,6.0,6.0,2.0,3.0,3.0,3.0,2.0,6.0,6.0,5.0,2.0,6.0,6.0,6.0,1.0,4.0,5.0,2.0,2.0,5.0,3.0,5.0,2.0,4.0,4.0,2.0,2.0,5.0,99.0,4.0,5.0,5.0,5.0,5.0,5.0,2.0,2.0,2.0,5.0,2.0,4.0,2.0,5.0,6.0,,6.0,6.0,5.0,6.0,6.0,4.0,5.0,6.0,5.0,6.0,5.0,6.0,6.0,4.0,6.0,6.0,2.0,5.0,6.0,5.0,2.0,5.0,3.0,6.0,1.0,5.0,,5.0,5.0,5.0,4.0,5.0,2.0,"je commence à serieusement me demander si nous ne devons pas rentrer en France à un moment. Vivant aux USA et voyant la situation ou plutot l echo de la situation sanitaire du moment et surtout les projections à venir, je crains le pire si ma famille et moi meme avons besoin de soins.  Nous sommes à la fin de notre expatriation (une année encore) aux USA et je souhaite de plus en plus y mettre un terme dans les mois qui viennent.  J ai subit une chirugie en decembre dernier, et meme avec une assurance santé Premium je paye encore toutes les semaines ""des plus"" de cette chirurgie !",1.9,1.666667,2.0,5.333333,6.0,5.0,4.0,5.5
66580,1120,2020-04-02 09:57:28,EN,43,Female,"College degree, bachelor, master",College degree,Self-employed,United States,no,Minnesota,Single,0.0,Yes,Isolated,0.0,0.0,,,,3.0,3.0,5.0,4.0,3.0,3.0,3.0,3.0,3.0,3.0,5.0,5.0,5.0,5.0,8.0,5.0,5.0,5.0,5.0,9.0,2.0,5.0,6.0,6.0,5.0,5.0,0.0,5.0,5.0,5.0,5.0,3.0,4.0,6.0,6.0,4.0,6.0,4.0,5.0,4.0,6.0,4.0,3.0,5.0,5.0,5.0,1.0,5.0,99.0,99.0,99.0,99.0,2.0,5.0,5.0,99.0,99.0,2.0,2.0,5.0,6.0,6.0,1.0,5.0,1.0,6.0,3.0,5.0,5.0,1.0,4.0,1.0,,6.0,6.0,6.0,6.0,6.0,6.0,6.0,6.0,6.0,6.0,4.0,1.0,6.0,1.0,5.0,1.0,5.0,1.0,5.0,1.0,5.0,4.0,1.0,5.0,3.0,5.0,I have had no face to face contact,1.0,4.0,1.0,1.0,1.0,4.0,"My state government is doing much more than my federal government, thankfully.",3.1,5.0,5.0,4.0,4.666667,4.666667,5.333333,6.0
66645,965,2020-04-02 09:43:36,EN,65,Female,"Some College, short continuing education or equivalent",Up to 12 years of school,Retired,United States,no,Oregon,Married/cohabiting,0.0,Yes,Isolated,1.0,0.0,Program A,,No,3.0,4.0,4.0,3.0,3.0,3.0,3.0,3.0,3.0,3.0,3.0,3.0,5.0,8.0,10.0,1.0,8.0,8.0,5.0,8.0,1.0,6.0,1.0,1.0,1.0,1.0,4.0,5.0,5.0,5.0,4.0,4.0,3.0,5.0,4.0,3.0,4.0,3.0,4.0,5.0,5.0,4.0,3.0,5.0,5.0,4.0,2.0,5.0,99.0,99.0,99.0,99.0,6.0,6.0,3.0,2.0,99.0,5.0,4.0,6.0,6.0,5.0,99.0,6.0,2.0,5.0,5.0,4.0,6.0,3.0,6.0,99.0,,5.0,5.0,5.0,5.0,5.0,5.0,5.0,5.0,5.0,5.0,4.0,4.0,5.0,5.0,5.0,4.0,5.0,5.0,4.0,5.0,5.0,5.0,5.0,5.0,5.0,4.0,,2.0,4.0,4.0,4.0,4.0,5.0,,3.2,3.666667,4.333333,3.333333,4.666667,4.666667,4.666667,5.0
66651,2369,2020-04-03 10:06:08,EN,72,Female,"College degree, bachelor, master",College degree,Part time employed,United States,no,New York,Married/cohabiting,1.0,Yes,Isolated,0.0,0.0,Program A,,No,,3.0,3.0,4.0,3.0,2.0,3.0,4.0,3.0,2.0,1.0,2.0,3.0,7.0,9.0,1.0,6.0,7.0,5.0,6.0,1.0,6.0,6.0,6.0,6.0,6.0,0.0,6.0,5.0,6.0,1.0,4.0,4.0,5.0,4.0,4.0,5.0,5.0,4.0,5.0,6.0,5.0,4.0,5.0,5.0,6.0,2.0,6.0,,,,,,,,,,,,,,,,,,,,,,,,,,,,,,,,,,,,,,,,,,,,,,,,,,,,,,,,,,,,2.555556,2.0,4.0,4.333333,5.333333,4.333333,5.666667,
66665,637,2020-04-02 09:34:21,EN,22,Female,"Some College, short continuing education or equivalent",College degree,Student,United States,no,Michigan,Single,0.0,Yes,Isolated,2.0,0.0,,Program C,No,2.0,3.0,3.0,3.0,3.0,4.0,5.0,3.0,1.0,4.0,2.0,4.0,3.0,4.0,8.0,3.0,6.0,5.0,4.0,8.0,5.0,5.0,5.0,5.0,6.0,6.0,3.0,5.0,5.0,6.0,3.0,3.0,3.0,4.0,4.0,3.0,3.0,4.0,5.0,4.0,6.0,4.0,2.0,3.0,5.0,4.0,4.0,3.0,5.0,6.0,99.0,1.0,4.0,6.0,99.0,2.0,99.0,6.0,3.0,5.0,4.0,4.0,4.0,4.0,1.0,99.0,4.0,4.0,2.0,1.0,5.0,3.0,,6.0,5.0,6.0,6.0,6.0,5.0,6.0,6.0,4.0,5.0,2.0,5.0,5.0,2.0,4.0,4.0,3.0,5.0,6.0,3.0,4.0,2.0,4.0,4.0,1.0,4.0,,1.0,2.0,3.0,4.0,2.0,2.0,"Not being able to see my therapist worries me, and being socially isolated / cooped up indoors makes me worry about my mental health",2.7,3.0,4.0,3.0,4.666667,4.333333,3.333333,5.5
66682,706,2020-04-02 09:33:07,FR,38,Female,PhD/Doctorate,Up to 9 years of school,Full time employed,United States,yes,Californie,Married/cohabiting,1.0,No,Life carries on with minor changes,1.0,1.0,Program A,,No,4.0,2.0,3.0,4.0,2.0,2.0,4.0,3.0,3.0,1.0,2.0,1.0,1.0,3.0,6.0,0.0,3.0,1.0,0.0,3.0,1.0,5.0,4.0,5.0,6.0,6.0,1.0,6.0,6.0,6.0,1.0,5.0,4.0,5.0,5.0,4.0,6.0,5.0,2.0,5.0,4.0,5.0,3.0,2.0,5.0,5.0,2.0,6.0,2.0,5.0,1.0,6.0,1.0,1.0,1.0,5.0,6.0,5.0,4.0,5.0,6.0,6.0,3.0,2.0,2.0,1.0,2.0,2.0,1.0,1.0,5.0,6.0,,6.0,6.0,5.0,6.0,6.0,6.0,6.0,6.0,5.0,6.0,2.0,2.0,6.0,4.0,5.0,5.0,1.0,1.0,6.0,4.0,2.0,5.0,4.0,6.0,1.0,6.0,,1.0,6.0,6.0,1.0,1.0,3.0,,2.6,1.333333,4.333333,5.333333,4.666667,3.666667,5.333333,5.8
66723,1993,2020-04-02 09:47:37,EN,65,Female,"Some College, short continuing education or equivalent",Up to 12 years of school,Retired,United States,no,Michigan,Married/cohabiting,1.0,Yes,Isolated,2.0,0.0,Program A,,No,2.0,2.0,3.0,3.0,3.0,2.0,4.0,3.0,2.0,1.0,1.0,1.0,3.0,5.0,9.0,,7.0,7.0,5.0,6.0,,6.0,6.0,6.0,6.0,6.0,0.0,3.0,4.0,5.0,2.0,4.0,1.0,5.0,4.0,4.0,3.0,3.0,5.0,3.0,6.0,2.0,2.0,5.0,6.0,4.0,2.0,5.0,6.0,2.0,99.0,6.0,5.0,2.0,2.0,4.0,99.0,2.0,3.0,6.0,5.0,6.0,2.0,2.0,2.0,99.0,3.0,2.0,4.0,2.0,4.0,3.0,,5.0,5.0,5.0,5.0,5.0,5.0,5.0,5.0,5.0,5.0,4.0,4.0,5.0,4.0,5.0,5.0,1.0,1.0,4.0,4.0,5.0,4.0,4.0,5.0,5.0,4.0,,2.0,4.0,2.0,5.0,4.0,3.0,Our United States president has caused a lot of confusion and anger for not taking this seriously.,2.3,1.666667,4.0,2.666667,3.666667,5.333333,4.666667,5.0
66727,605,2020-04-02 09:23:48,EN,67,Female,PhD/Doctorate,College degree,Retired,United States,no,Pennsylvania,Married/cohabiting,0.0,Yes,Isolated,1.0,0.0,Program A,,No,3.0,3.0,3.0,4.0,3.0,2.0,5.0,4.0,4.0,3.0,1.0,2.0,4.0,6.0,9.0,3.0,7.0,7.0,3.0,9.0,3.0,6.0,6.0,6.0,6.0,6.0,2.0,5.0,4.0,5.0,2.0,5.0,4.0,5.0,4.0,5.0,5.0,4.0,3.0,5.0,6.0,4.0,4.0,5.0,6.0,5.0,1.0,5.0,4.0,99.0,99.0,99.0,2.0,5.0,1.0,1.0,99.0,6.0,4.0,5.0,5.0,4.0,99.0,2.0,1.0,99.0,4.0,2.0,4.0,99.0,5.0,4.0,,6.0,6.0,6.0,6.0,6.0,5.0,6.0,6.0,5.0,6.0,2.0,5.0,6.0,1.0,6.0,4.0,1.0,1.0,5.0,5.0,4.0,4.0,4.0,5.0,1.0,5.0,,2.0,6.0,4.0,5.0,4.0,5.0,,2.6,2.333333,3.666667,4.333333,5.0,4.666667,5.333333,5.8
66728,1082,2020-04-02 09:31:10,SME,25,Female,"College degree, bachelor, master",Some College or equivalent,Student,United States,yes,California,Married/cohabiting,0.0,Yes,Isolated,1.0,0.0,,Program D,No,2.0,4.0,4.0,3.0,4.0,4.0,3.0,3.0,4.0,3.0,5.0,4.0,5.0,6.0,9.0,9.0,9.0,9.0,8.0,7.0,9.0,6.0,6.0,6.0,4.0,4.0,5.0,5.0,5.0,6.0,4.0,1.0,3.0,5.0,3.0,2.0,5.0,5.0,2.0,5.0,5.0,5.0,4.0,5.0,5.0,5.0,4.0,4.0,5.0,5.0,99.0,6.0,6.0,5.0,2.0,2.0,99.0,6.0,2.0,6.0,6.0,6.0,6.0,6.0,5.0,6.0,6.0,5.0,2.0,99.0,5.0,6.0,,4.0,3.0,3.0,5.0,4.0,4.0,3.0,6.0,3.0,3.0,5.0,1.0,5.0,1.0,5.0,4.0,1.0,2.0,4.0,5.0,4.0,5.0,5.0,5.0,5.0,4.0,,5.0,4.0,5.0,4.0,4.0,1.0,,3.2,4.666667,4.333333,5.0,5.0,4.333333,4.0,3.8
66756,983,2020-04-02 09:26:46,EN,32,Male,"College degree, bachelor, master",Up to 12 years of school,Not employed,United States,no,MA,Married/cohabiting,0.0,Yes,Isolated,1.0,0.0,,Program D,No,3.0,4.0,4.0,4.0,3.0,2.0,4.0,3.0,5.0,3.0,2.0,2.0,4.0,6.0,8.0,2.0,5.0,10.0,5.0,2.0,0.0,2.0,6.0,5.0,6.0,6.0,0.0,6.0,4.0,4.0,2.0,4.0,4.0,4.0,5.0,5.0,6.0,6.0,2.0,5.0,5.0,5.0,4.0,3.0,5.0,5.0,3.0,5.0,1.0,5.0,99.0,6.0,3.0,6.0,1.0,4.0,99.0,6.0,3.0,6.0,5.0,5.0,2.0,3.0,2.0,6.0,6.0,4.0,5.0,1.0,5.0,6.0,,5.0,5.0,5.0,6.0,5.0,2.0,5.0,6.0,6.0,6.0,2.0,5.0,6.0,1.0,6.0,4.0,4.0,1.0,5.0,3.0,4.0,4.0,5.0,6.0,1.0,1.0,,4.0,6.0,2.0,5.0,4.0,1.0,,3.1,2.666667,3.666667,5.666667,5.0,3.666667,4.666667,5.1
66789,4931,2020-04-02 10:25:28,SME,34,Female,PhD/Doctorate,Up to 6 years of school,Not employed,United States,yes,Illinois,Married/cohabiting,0.0,No,Life carries on with minor changes,1.0,0.0,,,,3.0,2.0,3.0,4.0,4.0,2.0,4.0,3.0,3.0,2.0,5.0,2.0,5.0,7.0,9.0,8.0,10.0,8.0,7.0,6.0,10.0,5.0,5.0,5.0,4.0,4.0,5.0,4.0,5.0,5.0,2.0,5.0,1.0,4.0,4.0,5.0,5.0,6.0,4.0,4.0,4.0,5.0,2.0,5.0,5.0,5.0,2.0,5.0,99.0,99.0,99.0,5.0,1.0,4.0,5.0,1.0,99.0,4.0,5.0,4.0,2.0,4.0,99.0,99.0,4.0,4.0,4.0,3.0,4.0,2.0,4.0,6.0,Me angustia la tristeza de otros que realmente la pasan mal,6.0,6.0,6.0,6.0,6.0,6.0,6.0,6.0,5.0,6.0,1.0,5.0,6.0,,4.0,5.0,1.0,1.0,5.0,5.0,2.0,4.0,5.0,6.0,6.0,5.0,Pensar positivamente,3.0,3.0,3.0,4.0,3.0,3.0,,2.4,4.0,3.333333,4.666667,4.333333,5.0,5.0,5.9
66852,1134,2020-04-02 09:09:15,EN,40,Male,"College degree, bachelor, master",Some College or equivalent,Full time employed,United States,no,Connecticut,Single,0.0,Yes,Life carries on with minor changes,,,,Program C,No,3.0,3.0,3.0,4.0,4.0,1.0,3.0,4.0,3.0,2.0,5.0,2.0,5.0,3.0,7.0,2.0,7.0,4.0,7.0,5.0,4.0,3.0,5.0,3.0,5.0,5.0,3.0,6.0,4.0,4.0,2.0,2.0,5.0,4.0,4.0,5.0,4.0,2.0,5.0,5.0,3.0,6.0,5.0,5.0,3.0,5.0,2.0,6.0,1.0,1.0,99.0,5.0,4.0,5.0,4.0,99.0,99.0,5.0,2.0,4.0,2.0,5.0,1.0,3.0,1.0,2.0,2.0,99.0,1.0,1.0,4.0,5.0,,5.0,6.0,6.0,6.0,6.0,6.0,6.0,6.0,6.0,5.0,3.0,1.0,6.0,3.0,4.0,5.0,4.0,1.0,5.0,6.0,4.0,3.0,4.0,6.0,6.0,2.0,,3.0,4.0,3.0,3.0,4.0,4.0,Boredom and not knowing when it will end are the hardest parts. But by and large it's not a huge change...I work from home 4-5 days a week anyways and live in a fairly sleepy area (hoping to change that once this chaos ends!),2.4,4.0,3.333333,2.666667,4.666667,3.333333,5.333333,5.8
66888,2968,2020-04-02 09:33:58,EN,67,Female,"College degree, bachelor, master",College degree,Retired,United States,no,Washington state,Divorced/widowed,0.0,Yes,Life carries on with minor changes,2.0,0.0,Program B,,No,3.0,2.0,2.0,4.0,4.0,1.0,5.0,4.0,3.0,1.0,2.0,1.0,1.0,9.0,10.0,6.0,8.0,6.0,3.0,10.0,6.0,4.0,4.0,4.0,5.0,6.0,2.0,6.0,6.0,6.0,1.0,4.0,3.0,3.0,1.0,6.0,6.0,5.0,2.0,6.0,6.0,6.0,5.0,5.0,5.0,5.0,4.0,6.0,99.0,99.0,99.0,99.0,4.0,4.0,99.0,1.0,99.0,4.0,5.0,4.0,4.0,4.0,99.0,4.0,1.0,2.0,2.0,4.0,3.0,1.0,4.0,99.0,,6.0,5.0,4.0,6.0,6.0,6.0,6.0,5.0,5.0,6.0,4.0,2.0,6.0,2.0,5.0,4.0,1.0,1.0,3.0,5.0,4.0,4.0,3.0,3.0,4.0,5.0,,3.0,6.0,6.0,6.0,6.0,6.0,,1.9,1.333333,1.666667,5.333333,6.0,4.0,4.666667,5.5
66889,1177,2020-04-02 09:04:02,HR,26,Female,"College degree, bachelor, master",College degree,Student,United States,yes,Delaware,Single,0.0,Yes,Isolated,2.0,0.0,Program A,,No,4.0,3.0,5.0,3.0,2.0,5.0,3.0,2.0,4.0,4.0,5.0,5.0,5.0,7.0,9.0,6.0,8.0,8.0,2.0,9.0,7.0,4.0,5.0,2.0,4.0,3.0,7.0,6.0,6.0,5.0,6.0,5.0,1.0,2.0,2.0,5.0,6.0,6.0,2.0,5.0,5.0,4.0,2.0,5.0,5.0,6.0,1.0,6.0,1.0,5.0,99.0,2.0,1.0,6.0,99.0,2.0,99.0,2.0,5.0,5.0,4.0,4.0,5.0,5.0,2.0,6.0,6.0,4.0,2.0,1.0,6.0,6.0,Neizvjesnost to ce se dogoditi s mojom disertacijom i projektom jer ovisi o regrutiranju ljudi (provodim klinicku studiju i trenutno ne moemo provoditi istraivanja),6.0,6.0,5.0,6.0,6.0,5.0,6.0,6.0,5.0,6.0,4.0,6.0,4.0,6.0,5.0,5.0,1.0,1.0,2.0,4.0,1.0,4.0,1.0,5.0,1.0,5.0,,4.0,5.0,5.0,2.0,5.0,5.0,Mentori puni razumijevanja koji me podupiru,3.9,5.0,2.0,5.666667,4.666667,5.0,6.0,5.7
66895,1028,2020-04-02 09:00:55,EN,32,Female,"College degree, bachelor, master",College degree,Student,United States,no,MA,Married/cohabiting,0.0,Yes,Isolated,1.0,0.0,,Program D,Not sure,3.0,3.0,4.0,4.0,3.0,2.0,4.0,3.0,3.0,2.0,3.0,3.0,5.0,6.0,8.0,3.0,5.0,8.0,6.0,8.0,1.0,5.0,5.0,5.0,6.0,6.0,0.0,5.0,6.0,5.0,5.0,5.0,4.0,5.0,5.0,4.0,5.0,3.0,4.0,4.0,5.0,3.0,4.0,4.0,5.0,6.0,4.0,5.0,2.0,5.0,99.0,5.0,4.0,6.0,2.0,4.0,99.0,5.0,3.0,5.0,4.0,5.0,4.0,6.0,3.0,6.0,6.0,5.0,1.0,2.0,4.0,3.0,,5.0,6.0,6.0,5.0,6.0,5.0,6.0,6.0,6.0,5.0,4.0,2.0,5.0,2.0,4.0,4.0,3.0,2.0,5.0,4.0,5.0,5.0,5.0,5.0,1.0,4.0,,3.0,4.0,3.0,4.0,5.0,3.0,,2.7,3.666667,4.333333,3.666667,4.0,4.0,4.666667,5.6
66931,7880,2020-04-02 10:47:47,EN,30,Female,"College degree, bachelor, master",College degree,Student,United States,no,Massachusetts,Married/cohabiting,0.0,Yes,Isolated,1.0,0.0,Program A,,Yes,5.0,5.0,5.0,4.0,3.0,3.0,3.0,3.0,5.0,2.0,1.0,2.0,4.0,7.0,10.0,2.0,4.0,6.0,7.0,8.0,2.0,5.0,6.0,5.0,6.0,6.0,0.0,5.0,5.0,5.0,2.0,3.0,6.0,5.0,4.0,5.0,6.0,5.0,3.0,5.0,6.0,6.0,4.0,5.0,5.0,6.0,4.0,5.0,2.0,6.0,99.0,6.0,3.0,5.0,2.0,1.0,99.0,6.0,4.0,6.0,6.0,6.0,2.0,3.0,4.0,2.0,5.0,5.0,6.0,2.0,6.0,1.0,,6.0,6.0,6.0,6.0,6.0,6.0,6.0,6.0,6.0,6.0,3.0,1.0,6.0,1.0,6.0,5.0,1.0,1.0,5.0,6.0,5.0,6.0,6.0,5.0,2.0,5.0,,2.0,6.0,2.0,6.0,6.0,3.0,,3.6,2.333333,3.666667,5.0,5.666667,4.333333,4.666667,6.0
66933,1531,2020-04-02 09:01:53,EN,30,Female,"College degree, bachelor, master",College degree,Full time employed,United States,no,New Mexico,Single,0.0,Yes,Isolated,0.0,0.0,Program B,,Not sure,4.0,,5.0,4.0,3.0,4.0,3.0,4.0,4.0,3.0,3.0,2.0,3.0,5.0,10.0,3.0,0.0,8.0,7.0,10.0,1.0,5.0,6.0,4.0,6.0,5.0,2.0,6.0,5.0,6.0,2.0,4.0,4.0,6.0,6.0,1.0,4.0,2.0,5.0,4.0,6.0,5.0,2.0,6.0,6.0,4.0,5.0,5.0,2.0,4.0,99.0,3.0,5.0,3.0,99.0,99.0,99.0,4.0,5.0,6.0,6.0,5.0,1.0,1.0,1.0,4.0,4.0,1.0,4.0,1.0,6.0,2.0,,6.0,5.0,5.0,6.0,6.0,5.0,6.0,6.0,5.0,6.0,4.0,2.0,6.0,2.0,5.0,4.0,5.0,1.0,2.0,3.0,2.0,4.0,3.0,6.0,1.0,3.0,,5.0,3.0,2.0,5.0,4.0,5.0,"Concern over ability to fill and pick up prescription medications is very high. Concern that my mental illnesses will get worse without medication and/or due to isolation/social distancing is high. Concern that my physical health is already deteriorating and will only get worse is high. While most people are keeping distance, I am frustrated by how many are going to parks and open spaces still, it makes me feel too uncomfortable to go to one for a walk by myself. Fear that something will happen to my pets and I will be unable to pay for their medical emergency as only emergency veterinarian offices are open. While a medical office, my dentist has shut down for a while and cancelled an appointment I've been waiting for over a month (now 2 months) and I'm worried my dental issue will get worse. I am also very concerned that when this is over I will struggle and fail to get ""back to normal"" after having so much time away from people.",3.333333,2.666667,6.0,2.666667,5.0,5.666667,3.666667,5.6
66935,635,2020-04-02 08:46:21,EN,38,Male,"College degree, bachelor, master",PhD/Doctorate,Full time employed,United States,no,Colorado,Married/cohabiting,2.0,Yes,Life carries on with minor changes,,,,Program C,No,3.0,3.0,3.0,4.0,3.0,3.0,4.0,4.0,3.0,1.0,2.0,3.0,3.0,6.0,9.0,2.0,6.0,6.0,6.0,6.0,2.0,6.0,6.0,6.0,6.0,6.0,2.0,5.0,5.0,5.0,3.0,4.0,5.0,6.0,2.0,5.0,5.0,5.0,2.0,5.0,5.0,5.0,4.0,5.0,5.0,5.0,2.0,5.0,4.0,5.0,2.0,5.0,4.0,5.0,2.0,2.0,5.0,5.0,4.0,5.0,6.0,4.0,2.0,2.0,2.0,3.0,5.0,5.0,3.0,4.0,4.0,3.0,The lasting impact on mental health and economy from a national context,5.0,5.0,5.0,5.0,5.0,5.0,6.0,5.0,5.0,5.0,4.0,5.0,5.0,3.0,4.0,4.0,4.0,4.0,5.0,4.0,5.0,4.0,4.0,4.0,4.0,4.0,,4.0,4.0,4.0,4.0,2.0,2.0,,2.5,2.666667,3.333333,5.0,5.0,4.333333,5.0,5.1
66939,957,2020-04-02 08:49:38,EN,40,Female,"Some College, short continuing education or equivalent",Some College or equivalent,Not employed,United States,no,CA,Married/cohabiting,4.0,Yes,Isolated,1.0,4.0,Program A,,No,4.0,3.0,3.0,4.0,4.0,2.0,4.0,4.0,3.0,2.0,1.0,2.0,4.0,7.0,9.0,4.0,8.0,6.0,8.0,5.0,5.0,4.0,5.0,5.0,6.0,6.0,2.0,4.0,6.0,6.0,4.0,4.0,4.0,5.0,3.0,4.0,6.0,6.0,3.0,3.0,5.0,4.0,4.0,5.0,5.0,4.0,1.0,6.0,4.0,99.0,2.0,4.0,3.0,5.0,6.0,3.0,2.0,6.0,3.0,3.0,4.0,4.0,99.0,4.0,2.0,4.0,2.0,2.0,2.0,2.0,6.0,2.0,In most Worried about The long-term health and well-being of individuals due to the collapse of the economy.,6.0,6.0,6.0,6.0,6.0,6.0,6.0,6.0,6.0,6.0,5.0,6.0,6.0,5.0,4.0,4.0,1.0,2.0,2.0,6.0,5.0,5.0,5.0,5.0,6.0,3.0,,6.0,3.0,1.0,3.0,5.0,5.0,Well following social distancing guides connecting with others at a safe distance even just on a walk in the neighborhood has a huge positive impact. Smiling and saying hello as we cross paths of at least 6 feet. Connecting with individuals who I do not know and this way is encouraging in the sense of we are all in this together.,2.5,2.333333,3.666667,5.333333,4.0,4.333333,5.333333,6.0
66950,2197,2020-04-03 09:09:17,EN,35,Female,"College degree, bachelor, master",Up to 12 years of school,Not employed,United States,no,CA,Married/cohabiting,0.0,No,Isolated,1.0,0.0,Program A,,Not sure,3.0,3.0,5.0,3.0,3.0,1.0,4.0,3.0,3.0,4.0,1.0,3.0,1.0,6.0,8.0,2.0,2.0,4.0,0.0,1.0,0.0,6.0,6.0,6.0,6.0,6.0,0.0,4.0,6.0,6.0,1.0,2.0,5.0,6.0,2.0,4.0,6.0,6.0,1.0,6.0,6.0,6.0,1.0,2.0,6.0,4.0,2.0,4.0,,,,,,,,,,,,,,,,,,,,,,,,,,,,,,,,,,,,,,,,,,,,,,,,,,,,,,,,,,,,3.0,1.666667,3.666667,6.0,6.0,4.666667,4.333333,
66963,929,2020-04-02 08:45:47,SME,31,Male,"College degree, bachelor, master",College degree,Full time employed,United States,yes,"Mukilteo, Washington",Other or would rather not say,0.0,Yes,Isolated,0.0,0.0,Program B,,Not sure,5.0,3.0,4.0,4.0,4.0,3.0,4.0,3.0,3.0,3.0,4.0,4.0,5.0,9.0,9.0,5.0,8.0,6.0,5.0,8.0,4.0,5.0,6.0,5.0,5.0,5.0,0.0,5.0,6.0,6.0,5.0,5.0,4.0,4.0,5.0,4.0,6.0,6.0,3.0,5.0,5.0,6.0,4.0,5.0,6.0,5.0,3.0,5.0,5.0,5.0,99.0,6.0,5.0,4.0,5.0,99.0,99.0,6.0,5.0,5.0,6.0,6.0,6.0,5.0,5.0,6.0,6.0,6.0,5.0,5.0,6.0,6.0,,6.0,6.0,6.0,6.0,6.0,5.0,6.0,6.0,6.0,5.0,5.0,6.0,6.0,5.0,6.0,5.0,2.0,3.0,6.0,5.0,5.0,5.0,5.0,5.0,6.0,5.0,,5.0,5.0,5.0,5.0,5.0,6.0,,3.0,4.333333,4.0,5.333333,5.333333,4.666667,4.666667,5.8
67003,829,2020-04-02 08:35:35,EN,26,Female,"College degree, bachelor, master",Up to 12 years of school,Full time employed,United States,no,Mi,Married/cohabiting,0.0,Yes,Isolated,,0.0,,Program C,No,4.0,4.0,4.0,4.0,3.0,4.0,5.0,2.0,3.0,3.0,2.0,4.0,5.0,7.0,5.0,0.0,6.0,5.0,10.0,7.0,2.0,6.0,6.0,5.0,6.0,5.0,2.0,5.0,5.0,5.0,2.0,5.0,2.0,5.0,5.0,4.0,5.0,3.0,5.0,4.0,5.0,4.0,3.0,5.0,5.0,4.0,4.0,5.0,6.0,5.0,99.0,6.0,5.0,5.0,99.0,99.0,99.0,5.0,5.0,6.0,6.0,6.0,99.0,2.0,5.0,4.0,6.0,4.0,5.0,3.0,6.0,99.0,,6.0,6.0,5.0,5.0,4.0,5.0,6.0,6.0,4.0,6.0,4.0,3.0,5.0,3.0,5.0,5.0,5.0,5.0,6.0,4.0,5.0,5.0,5.0,4.0,1.0,5.0,,5.0,5.0,5.0,5.0,5.0,2.0,I feel worried every time I walk my dog.,3.2,3.666667,4.333333,3.333333,4.333333,4.666667,4.0,5.3
67016,814,2020-04-02 08:33:35,EN,34,Male,PhD/Doctorate,College degree,Full time employed,United States,no,Tennessee,Married/cohabiting,0.0,Yes,Life carries on with minor changes,1.0,0.0,,Program C,No,4.0,5.0,4.0,3.0,3.0,4.0,3.0,2.0,5.0,5.0,1.0,2.0,3.0,6.0,10.0,3.0,4.0,6.0,4.0,10.0,0.0,3.0,6.0,6.0,6.0,6.0,0.0,6.0,6.0,6.0,2.0,1.0,1.0,6.0,6.0,6.0,1.0,1.0,6.0,5.0,6.0,6.0,2.0,5.0,6.0,4.0,2.0,6.0,1.0,4.0,99.0,5.0,2.0,5.0,1.0,4.0,99.0,6.0,1.0,5.0,4.0,6.0,6.0,3.0,1.0,2.0,3.0,2.0,1.0,1.0,6.0,1.0,,5.0,6.0,4.0,5.0,6.0,5.0,6.0,6.0,5.0,6.0,1.0,4.0,5.0,1.0,5.0,1.0,6.0,1.0,5.0,6.0,4.0,6.0,6.0,6.0,1.0,1.0,,3.0,3.0,1.0,2.0,1.0,1.0,,4.0,2.0,4.333333,1.0,5.666667,5.333333,5.0,5.4
67033,963,2020-04-02 08:33:10,EN,73,Female,"College degree, bachelor, master",College degree,Full time employed,United States,no,oregon,Divorced/widowed,0.0,Yes,Isolated,0.0,,,Program D,No,3.0,1.0,4.0,4.0,3.0,1.0,4.0,3.0,1.0,1.0,5.0,3.0,5.0,7.0,9.0,2.0,9.0,5.0,5.0,9.0,1.0,5.0,5.0,5.0,5.0,5.0,0.0,5.0,5.0,5.0,5.0,5.0,2.0,5.0,3.0,4.0,5.0,4.0,4.0,4.0,5.0,4.0,4.0,5.0,5.0,5.0,2.0,5.0,2.0,6.0,99.0,99.0,5.0,6.0,2.0,99.0,99.0,5.0,2.0,5.0,5.0,4.0,6.0,6.0,2.0,6.0,2.0,99.0,3.0,2.0,6.0,99.0,,6.0,5.0,6.0,5.0,4.0,5.0,6.0,5.0,5.0,6.0,1.0,5.0,6.0,5.0,6.0,4.0,2.0,1.0,6.0,5.0,2.0,1.0,5.0,6.0,5.0,2.0,,1.0,2.0,5.0,2.0,2.0,4.0,,2.1,4.333333,3.666667,4.0,4.333333,4.333333,5.0,5.3
67070,582,2020-04-02 08:20:49,SME,44,Female,"College degree, bachelor, master",Some College or equivalent,Full time employed,United States,yes,Illinois,Married/cohabiting,3.0,Yes,Isolated,1.0,1.0,,Program C,No,1.0,3.0,4.0,4.0,4.0,3.0,3.0,2.0,3.0,3.0,4.0,1.0,3.0,9.0,9.0,8.0,9.0,8.0,8.0,1.0,5.0,6.0,6.0,6.0,6.0,6.0,3.0,4.0,3.0,5.0,4.0,3.0,5.0,2.0,2.0,5.0,6.0,5.0,2.0,5.0,6.0,5.0,2.0,3.0,6.0,6.0,2.0,6.0,5.0,5.0,5.0,5.0,5.0,5.0,5.0,5.0,5.0,6.0,5.0,6.0,5.0,6.0,5.0,5.0,5.0,5.0,5.0,5.0,5.0,5.0,5.0,5.0,,5.0,5.0,5.0,5.0,5.0,5.0,5.0,5.0,5.0,5.0,4.0,4.0,5.0,5.0,5.0,5.0,4.0,5.0,4.0,4.0,5.0,5.0,5.0,5.0,6.0,5.0,,5.0,5.0,5.0,5.0,5.0,5.0,,2.8,2.666667,2.0,5.333333,5.333333,4.666667,5.666667,5.0
67092,862,2020-04-02 08:22:13,EN,43,Female,"Some College, short continuing education or equivalent",College degree,Full time employed,United States,no,Michigan,Single,1.0,Yes,Isolated,0.0,1.0,,Program D,Yes,5.0,3.0,5.0,3.0,5.0,5.0,4.0,1.0,5.0,3.0,5.0,2.0,5.0,4.0,7.0,1.0,3.0,3.0,4.0,2.0,1.0,6.0,1.0,1.0,1.0,1.0,0.0,6.0,1.0,6.0,2.0,3.0,6.0,5.0,6.0,5.0,6.0,2.0,6.0,6.0,6.0,4.0,6.0,1.0,6.0,6.0,1.0,6.0,99.0,6.0,6.0,3.0,6.0,3.0,1.0,99.0,6.0,6.0,4.0,5.0,6.0,6.0,6.0,2.0,4.0,5.0,5.0,2.0,3.0,3.0,6.0,5.0,,1.0,4.0,1.0,1.0,5.0,6.0,6.0,1.0,6.0,3.0,1.0,1.0,6.0,1.0,6.0,6.0,4.0,6.0,6.0,6.0,3.0,3.0,2.0,6.0,1.0,3.0,,2.0,5.0,4.0,5.0,4.0,1.0,,3.7,4.0,4.333333,3.0,5.333333,2.666667,6.0,3.4
67111,17879,2020-04-02 13:02:18,EN,46,Female,"College degree, bachelor, master",College degree,Not employed,United States,no,Colorado,Married/cohabiting,0.0,No,Isolated,1.0,0.0,Program A,,No,2.0,4.0,5.0,3.0,3.0,4.0,4.0,2.0,3.0,3.0,1.0,4.0,5.0,9.0,9.0,6.0,9.0,8.0,1.0,6.0,8.0,3.0,3.0,6.0,6.0,6.0,2.0,6.0,6.0,6.0,6.0,6.0,6.0,5.0,4.0,2.0,5.0,1.0,5.0,6.0,5.0,4.0,4.0,4.0,5.0,5.0,5.0,5.0,2.0,2.0,1.0,2.0,3.0,4.0,1.0,2.0,99.0,6.0,4.0,6.0,5.0,6.0,2.0,2.0,2.0,1.0,6.0,5.0,6.0,2.0,6.0,6.0,,5.0,4.0,3.0,4.0,5.0,5.0,5.0,6.0,4.0,6.0,1.0,1.0,6.0,1.0,2.0,5.0,1.0,1.0,4.0,5.0,2.0,4.0,2.0,5.0,4.0,4.0,,5.0,4.0,4.0,2.0,5.0,2.0,"all my stocks are so much down that all my gains for last 3 years are wiped out. Of course, cannot go on with normal life as normal life for me is RVing. My plans are shuttered of getting a puppy. Most of the time I am depressed and not willing to do anything.",3.3,3.333333,4.666667,2.666667,5.0,4.0,4.0,4.7
67119,1108,2020-04-02 08:20:41,EN,64,Female,"College degree, bachelor, master",Up to 9 years of school,Part time employed,United States,no,Massachusetts,Married/cohabiting,1.0,Yes,Life carries on with minor changes,2.0,0.0,,Program D,No,1.0,1.0,2.0,5.0,5.0,1.0,5.0,5.0,1.0,1.0,1.0,1.0,1.0,5.0,7.0,1.0,9.0,8.0,9.0,9.0,0.0,6.0,6.0,6.0,6.0,6.0,1.0,6.0,5.0,5.0,1.0,4.0,4.0,5.0,2.0,6.0,4.0,4.0,4.0,5.0,6.0,6.0,5.0,6.0,6.0,1.0,1.0,6.0,1.0,1.0,99.0,1.0,3.0,1.0,1.0,1.0,99.0,1.0,1.0,1.0,1.0,1.0,1.0,1.0,2.0,1.0,1.0,1.0,1.0,1.0,1.0,1.0,,6.0,6.0,6.0,6.0,6.0,6.0,6.0,6.0,6.0,6.0,4.0,6.0,5.0,4.0,4.0,6.0,6.0,6.0,6.0,6.0,6.0,4.0,6.0,6.0,6.0,4.0,,1.0,1.0,1.0,2.0,4.0,4.0,,1.1,1.0,2.666667,3.666667,5.666667,4.666667,4.333333,6.0
67133,981,2020-04-02 08:16:14,EN,34,Female,"College degree, bachelor, master",Some College or equivalent,Full time employed,United States,no,NM,Married/cohabiting,0.0,Yes,Isolated,1.0,0.0,,Program C,No,1.0,1.0,3.0,4.0,4.0,1.0,5.0,5.0,1.0,1.0,1.0,1.0,2.0,8.0,10.0,10.0,8.0,10.0,9.0,10.0,8.0,2.0,5.0,5.0,5.0,6.0,3.0,5.0,5.0,6.0,1.0,4.0,1.0,6.0,6.0,5.0,2.0,2.0,5.0,4.0,5.0,6.0,2.0,4.0,5.0,3.0,2.0,5.0,1.0,1.0,99.0,2.0,4.0,3.0,1.0,1.0,99.0,4.0,2.0,5.0,4.0,4.0,1.0,2.0,2.0,2.0,3.0,1.0,1.0,2.0,5.0,3.0,,5.0,6.0,4.0,6.0,5.0,3.0,5.0,6.0,4.0,5.0,5.0,1.0,6.0,1.0,6.0,5.0,1.0,2.0,5.0,5.0,3.0,5.0,4.0,6.0,1.0,5.0,,3.0,3.0,2.0,2.0,3.0,3.0,,1.4,1.333333,4.666667,2.0,5.0,4.666667,4.333333,4.9
67143,725,2020-04-03 08:11:06,EN,31,Male,"College degree, bachelor, master",College degree,Full time employed,United States,no,Michigan,Married/cohabiting,0.0,No,Isolated,1.0,0.0,Program A,,No,2.0,3.0,3.0,4.0,4.0,2.0,2.0,3.0,3.0,2.0,3.0,2.0,3.0,4.0,8.0,2.0,4.0,2.0,5.0,7.0,2.0,4.0,5.0,3.0,6.0,6.0,2.0,6.0,5.0,5.0,2.0,4.0,6.0,3.0,3.0,5.0,4.0,2.0,4.0,3.0,3.0,4.0,3.0,4.0,4.0,3.0,4.0,4.0,3.0,3.0,99.0,3.0,4.0,4.0,99.0,3.0,99.0,5.0,3.0,4.0,4.0,3.0,4.0,3.0,4.0,4.0,4.0,4.0,1.0,1.0,4.0,1.0,,5.0,4.0,4.0,5.0,5.0,5.0,5.0,5.0,5.0,5.0,3.0,1.0,5.0,1.0,5.0,4.0,2.0,1.0,4.0,3.0,4.0,2.0,4.0,3.0,1.0,4.0,,3.0,5.0,4.0,3.0,3.0,3.0,,2.6,2.666667,2.666667,3.0,3.333333,4.0,3.333333,4.8
67154,943,2020-04-02 08:11:40,EN,50,Female,"College degree, bachelor, master",Some College or equivalent,Full time employed,United States,no,Arizona,Married/cohabiting,2.0,Yes,Life carries on with minor changes,,,Program A,,No,2.0,4.0,5.0,5.0,2.0,2.0,1.0,4.0,4.0,1.0,1.0,1.0,3.0,4.0,8.0,3.0,3.0,2.0,4.0,7.0,1.0,6.0,6.0,6.0,6.0,6.0,0.0,6.0,5.0,5.0,2.0,2.0,1.0,5.0,5.0,5.0,6.0,4.0,5.0,5.0,6.0,2.0,4.0,6.0,5.0,5.0,3.0,5.0,1.0,6.0,2.0,5.0,1.0,1.0,1.0,3.0,99.0,5.0,5.0,6.0,6.0,5.0,6.0,1.0,2.0,1.0,1.0,5.0,1.0,1.0,4.0,99.0,Worried that the US president is causing the CDC who should be trusted to withhold vital information,6.0,6.0,6.0,6.0,6.0,6.0,5.0,6.0,6.0,6.0,1.0,5.0,5.0,6.0,6.0,5.0,1.0,1.0,6.0,2.0,1.0,2.0,2.0,1.0,1.0,1.0,,5.0,1.0,6.0,1.0,1.0,1.0,,3.0,1.666667,4.0,4.0,4.333333,4.666667,4.666667,5.9
67166,797,2020-04-02 08:06:57,EN,24,Female,"College degree, bachelor, master",College degree,Part time employed,United States,no,Montana,Single,0.0,Yes,Isolated,3.0,0.0,Program A,,No,2.0,3.0,4.0,3.0,4.0,3.0,4.0,3.0,3.0,3.0,3.0,2.0,5.0,8.0,7.0,6.0,8.0,7.0,10.0,8.0,5.0,1.0,3.0,3.0,5.0,5.0,3.0,6.0,6.0,6.0,6.0,6.0,5.0,4.0,4.0,5.0,6.0,6.0,2.0,4.0,6.0,5.0,4.0,5.0,4.0,4.0,5.0,5.0,5.0,5.0,99.0,5.0,2.0,6.0,99.0,6.0,99.0,4.0,5.0,3.0,3.0,4.0,4.0,6.0,4.0,5.0,6.0,6.0,4.0,2.0,6.0,99.0,,6.0,5.0,3.0,5.0,6.0,5.0,6.0,6.0,5.0,6.0,2.0,5.0,3.0,1.0,5.0,3.0,1.0,1.0,4.0,4.0,2.0,3.0,4.0,3.0,1.0,2.0,,3.0,3.0,3.0,3.0,4.0,5.0,,2.8,3.333333,3.333333,5.666667,5.0,4.0,3.666667,5.3
67186,253,2020-04-03 07:54:17,EN,20,Female,Up to 12 years of school,Up to 12 years of school,Full time employed,United States,yes,Texas,Single,1.0,No,Life carries on as usual,0.0,0.0,,Program D,,,,,,,,,,,,,,,,,,,,,,,,,,,,,,,,,,,,,,,,,,,,,,,,,,,,,,,,,,,,,,,,,,,,,,,,,,,,,,,,,,,,,,,,,,,,,,,,,,,,,,,,,,,,,,,,,,,,
67213,1109,2020-04-02 08:02:58,EN,39,Male,"College degree, bachelor, master",College degree,Full time employed,United States,no,Michigan,Married/cohabiting,1.0,No,Isolated,1.0,1.0,,Program C,No,2.0,2.0,3.0,5.0,4.0,2.0,4.0,4.0,2.0,1.0,1.0,2.0,3.0,5.0,9.0,3.0,4.0,4.0,2.0,6.0,0.0,5.0,5.0,5.0,6.0,6.0,0.0,5.0,5.0,4.0,3.0,4.0,2.0,4.0,2.0,6.0,4.0,3.0,5.0,6.0,6.0,6.0,2.0,5.0,6.0,5.0,4.0,6.0,3.0,3.0,6.0,3.0,3.0,5.0,1.0,2.0,5.0,6.0,3.0,5.0,5.0,5.0,4.0,4.0,4.0,4.0,4.0,4.0,4.0,2.0,4.0,4.0,,5.0,5.0,5.0,5.0,5.0,5.0,5.0,5.0,5.0,5.0,2.0,3.0,5.0,2.0,5.0,4.0,2.0,2.0,2.0,4.0,4.0,2.0,4.0,5.0,1.0,2.0,,2.0,5.0,5.0,5.0,6.0,3.0,,1.9,2.0,2.333333,3.0,6.0,5.333333,4.666667,5.0
67216,722,2020-04-02 07:55:34,EN,34,Male,"College degree, bachelor, master",College degree,Full time employed,United States,no,Minnesota,Single,0.0,Yes,Isolated,1.0,0.0,,Program D,No,2.0,2.0,3.0,4.0,4.0,2.0,4.0,4.0,3.0,2.0,5.0,4.0,4.0,7.0,9.0,5.0,3.0,7.0,6.0,7.0,3.0,2.0,6.0,5.0,3.0,3.0,2.0,5.0,3.0,5.0,4.0,3.0,5.0,3.0,3.0,4.0,4.0,2.0,5.0,5.0,4.0,6.0,2.0,5.0,5.0,3.0,5.0,4.0,2.0,2.0,99.0,5.0,2.0,6.0,1.0,5.0,99.0,1.0,4.0,4.0,6.0,4.0,2.0,3.0,1.0,6.0,2.0,2.0,1.0,2.0,5.0,1.0,,5.0,5.0,5.0,4.0,4.0,5.0,4.0,4.0,4.0,5.0,3.0,4.0,5.0,2.0,4.0,5.0,5.0,5.0,5.0,4.0,3.0,1.0,4.0,3.0,1.0,3.0,Reading books,4.0,4.0,4.0,2.0,2.0,2.0,I haven't touched anyone in two weeks and I could really use a hug,2.2,4.333333,3.0,2.666667,5.0,5.0,3.0,4.5
67226,808,2020-04-02 07:53:42,EN,63,Female,"College degree, bachelor, master",Up to 12 years of school,Full time employed,United States,no,Virginia,Divorced/widowed,0.0,Yes,Isolated,0.0,0.0,,Program D,Yes,3.0,1.0,3.0,4.0,4.0,1.0,5.0,4.0,1.0,1.0,2.0,1.0,2.0,6.0,9.0,2.0,5.0,7.0,1.0,7.0,0.0,6.0,6.0,5.0,5.0,5.0,1.0,6.0,6.0,6.0,1.0,2.0,3.0,4.0,2.0,5.0,6.0,2.0,6.0,6.0,6.0,6.0,3.0,4.0,5.0,5.0,4.0,5.0,2.0,1.0,99.0,99.0,4.0,6.0,1.0,99.0,99.0,5.0,2.0,6.0,6.0,5.0,1.0,1.0,99.0,3.0,2.0,2.0,2.0,2.0,4.0,5.0,,5.0,6.0,5.0,5.0,5.0,6.0,6.0,6.0,6.0,5.0,4.0,1.0,6.0,1.0,6.0,6.0,2.0,6.0,3.0,5.0,4.0,4.0,4.0,6.0,1.0,4.0,,4.0,6.0,4.0,3.0,5.0,4.0,"The thing that most impacts my wellbeing is having that idiot donald trump in office, along with his syncophants.  I would feel more confident if we had a real leader.",1.7,1.666667,2.666667,3.0,6.0,4.333333,4.333333,5.5
67233,2501,2020-04-02 08:21:10,EN,65,Male,"College degree, bachelor, master",,Self-employed,United States,no,California,Married/cohabiting,4.0,Yes,Life carries on with minor changes,,,,,,2.0,3.0,4.0,5.0,3.0,3.0,4.0,4.0,3.0,3.0,,1.0,3.0,5.0,,5.0,6.0,7.0,8.0,8.0,5.0,4.0,4.0,4.0,4.0,4.0,4.0,1.0,5.0,5.0,1.0,4.0,1.0,5.0,3.0,5.0,4.0,,5.0,5.0,5.0,4.0,2.0,5.0,5.0,4.0,1.0,5.0,5.0,5.0,5.0,,5.0,1.0,1.0,5.0,,,,5.0,5.0,5.0,5.0,5.0,2.0,5.0,,,5.0,2.0,5.0,5.0,,5.0,5.0,5.0,5.0,5.0,5.0,5.0,5.0,5.0,5.0,5.0,2.0,4.0,3.0,4.0,5.0,2.0,1.0,3.0,4.0,4.0,5.0,4.0,2.0,6.0,3.0,,5.0,5.0,4.0,4.0,5.0,5.0,,2.6,2.0,3.333333,3.0,4.666667,5.0,5.0,5.0
67242,1060,2020-04-03 07:55:10,EN,36,Female,"College degree, bachelor, master",College degree,Self-employed,United States,no,Michigan,Married/cohabiting,2.0,Yes,Isolated,1.0,2.0,Program B,,No,3.0,1.0,4.0,5.0,3.0,1.0,5.0,3.0,3.0,2.0,3.0,2.0,4.0,8.0,7.0,2.0,4.0,6.0,7.0,8.0,0.0,4.0,4.0,5.0,6.0,6.0,0.0,5.0,6.0,6.0,2.0,4.0,5.0,2.0,3.0,5.0,6.0,5.0,2.0,6.0,6.0,6.0,3.0,5.0,5.0,5.0,4.0,5.0,5.0,6.0,5.0,4.0,3.0,5.0,3.0,2.0,4.0,4.0,4.0,4.0,4.0,5.0,4.0,2.0,4.0,5.0,4.0,2.0,3.0,3.0,4.0,2.0,,6.0,6.0,6.0,6.0,6.0,6.0,6.0,6.0,6.0,6.0,2.0,6.0,6.0,5.0,6.0,5.0,4.0,5.0,5.0,5.0,4.0,5.0,4.0,5.0,6.0,4.0,,3.0,3.0,3.0,3.0,3.0,2.0,,2.2,3.0,2.333333,5.333333,6.0,4.666667,4.333333,6.0
67266,990,2020-04-02 07:50:52,EN,46,Female,PhD/Doctorate,Up to 9 years of school,Not employed,United States,yes,Virginia,Single,0.0,No,Life carries on with minor changes,,,,Program D,No,1.0,3.0,4.0,3.0,1.0,3.0,4.0,1.0,2.0,3.0,2.0,1.0,2.0,3.0,5.0,1.0,2.0,2.0,4.0,7.0,1.0,4.0,6.0,6.0,4.0,5.0,0.0,3.0,6.0,6.0,1.0,2.0,5.0,5.0,4.0,5.0,4.0,2.0,6.0,4.0,6.0,6.0,1.0,4.0,5.0,6.0,4.0,5.0,2.0,99.0,99.0,6.0,2.0,4.0,2.0,99.0,99.0,3.0,5.0,5.0,6.0,6.0,99.0,3.0,2.0,1.0,2.0,99.0,4.0,1.0,4.0,6.0,,5.0,5.0,5.0,5.0,6.0,5.0,6.0,6.0,5.0,5.0,2.0,5.0,5.0,3.0,3.0,2.0,4.0,1.0,2.0,4.0,4.0,3.0,5.0,5.0,6.0,4.0,,2.0,5.0,6.0,3.0,5.0,4.0,I need to take anti anxiety meds to be able to sleep,3.1,1.666667,3.666667,2.333333,5.333333,5.0,4.666667,5.3
67277,7079,2020-04-02 09:30:12,EN,21,Female,Up to 12 years of school,College degree,Full time employed,United States,no,New york,Married/cohabiting,0.0,Not sure,Isolated,2.0,0.0,Program B,,No,3.0,5.0,5.0,4.0,2.0,3.0,4.0,3.0,2.0,3.0,1.0,2.0,3.0,3.0,7.0,1.0,3.0,0.0,2.0,5.0,3.0,5.0,6.0,6.0,6.0,5.0,0.0,2.0,5.0,5.0,6.0,2.0,4.0,6.0,6.0,4.0,5.0,4.0,3.0,5.0,5.0,5.0,4.0,5.0,5.0,5.0,1.0,6.0,6.0,5.0,99.0,4.0,6.0,5.0,1.0,5.0,1.0,5.0,5.0,6.0,5.0,6.0,6.0,4.0,3.0,2.0,5.0,4.0,6.0,5.0,6.0,99.0,,5.0,4.0,4.0,4.0,5.0,5.0,5.0,6.0,5.0,4.0,2.0,3.0,6.0,4.0,3.0,3.0,4.0,4.0,5.0,3.0,4.0,4.0,5.0,4.0,1.0,4.0,,5.0,5.0,4.0,5.0,6.0,1.0,,3.2,2.0,5.0,4.333333,5.0,4.333333,5.666667,4.7
67319,602,2020-04-03 07:34:11,EN,33,Female,PhD/Doctorate,College degree,Full time employed,United States,no,Minnesota,Married/cohabiting,3.0,Yes,Isolated,1.0,3.0,Program A,,No,2.0,2.0,4.0,3.0,3.0,2.0,4.0,3.0,3.0,3.0,1.0,1.0,1.0,6.0,8.0,2.0,1.0,1.0,7.0,9.0,0.0,5.0,5.0,5.0,6.0,6.0,1.0,5.0,5.0,5.0,2.0,5.0,4.0,2.0,5.0,5.0,5.0,5.0,2.0,5.0,5.0,4.0,2.0,3.0,4.0,2.0,2.0,6.0,2.0,99.0,6.0,5.0,4.0,5.0,4.0,2.0,5.0,5.0,2.0,6.0,6.0,5.0,5.0,5.0,5.0,5.0,5.0,5.0,2.0,2.0,5.0,2.0,,,,,,,,,,,,,,,,,,,,,,,,,,,,,,,,,,,,2.7,1.0,3.0,5.0,4.666667,4.0,4.333333,
67348,609,2020-04-02 07:28:05,EN,66,Male,"College degree, bachelor, master",College degree,Retired,United States,no,Michigan,Married/cohabiting,1.0,Yes,Life carries on with minor changes,2.0,0.0,,,,,,,,,,,,,,,,,,,,,,,,,,,,,,,,,,,,,,,,,,,,,,,,,,,,,,,,,,,,,,,,,,,,,,,,,,,,,,,,,,,,,,,,,,,,,,,,,,,,,,,,,,,,,,,,,,,,,,
67351,1212,2020-04-02 07:37:09,EN,40,Female,PhD/Doctorate,Some College or equivalent,Full time employed,United States,no,IN,Other or would rather not say,0.0,Yes,Life carries on with minor changes,85.0,0.0,Program B,,No,1.0,3.0,3.0,4.0,3.0,2.0,3.0,3.0,3.0,1.0,3.0,3.0,4.0,8.0,9.0,5.0,6.0,8.0,5.0,8.0,5.0,4.0,5.0,5.0,5.0,6.0,2.0,6.0,5.0,3.0,4.0,5.0,1.0,3.0,2.0,5.0,4.0,4.0,4.0,3.0,6.0,3.0,4.0,5.0,4.0,4.0,1.0,5.0,2.0,1.0,99.0,1.0,2.0,3.0,6.0,5.0,99.0,5.0,1.0,6.0,6.0,6.0,2.0,4.0,1.0,5.0,1.0,4.0,2.0,1.0,6.0,5.0,"Some of these things come in waves - it isn't constant distress, but comes regularly.",6.0,5.0,6.0,6.0,6.0,6.0,6.0,6.0,6.0,6.0,1.0,5.0,6.0,5.0,6.0,6.0,1.0,1.0,4.0,4.0,4.0,4.0,5.0,6.0,6.0,4.0,Getting outside for long walks. (We live in a rural area.),4.0,6.0,3.0,6.0,5.0,4.0,"I live in a religious community of women, who cannot keep full social distance, most of whom are physically compromised. The fear of the whole community collapsing if this gets in is a worry, as well as the financial consequences should many need hospitalization.",2.4,3.333333,2.333333,3.666667,4.0,4.0,5.0,5.9
67378,791,2020-04-02 07:23:48,EN,45,Female,"College degree, bachelor, master",Up to 12 years of school,Not employed,United States,no,Virginia,Married/cohabiting,2.0,Yes,Isolated,4.0,1.0,,Program D,No,5.0,5.0,5.0,4.0,2.0,3.0,3.0,2.0,5.0,4.0,3.0,2.0,4.0,4.0,7.0,1.0,2.0,6.0,2.0,8.0,0.0,6.0,6.0,6.0,6.0,6.0,0.0,3.0,6.0,6.0,1.0,1.0,5.0,6.0,6.0,2.0,5.0,4.0,2.0,4.0,6.0,6.0,3.0,4.0,5.0,5.0,3.0,3.0,4.0,99.0,4.0,99.0,6.0,1.0,1.0,6.0,2.0,6.0,6.0,6.0,6.0,6.0,99.0,1.0,1.0,2.0,1.0,5.0,6.0,2.0,4.0,2.0,We have three high risk family members out of a household of 6 and I am extremely anxious.,4.0,5.0,5.0,4.0,4.0,3.0,4.0,5.0,5.0,4.0,2.0,2.0,5.0,1.0,5.0,5.0,5.0,5.0,4.0,4.0,4.0,5.0,3.0,4.0,1.0,5.0,,5.0,4.0,6.0,3.0,6.0,3.0,,4.0,3.0,5.666667,4.666667,5.333333,4.333333,4.0,4.3
67382,500,2020-04-02 07:17:41,EN,31,Female,"College degree, bachelor, master",College degree,Full time employed,United States,no,Az,Married/cohabiting,0.0,Not sure,Life carries on with minor changes,1.0,0.0,Program B,,No,4.0,4.0,5.0,2.0,2.0,4.0,2.0,2.0,4.0,4.0,3.0,3.0,3.0,5.0,7.0,3.0,4.0,4.0,1.0,5.0,3.0,5.0,5.0,5.0,5.0,6.0,4.0,5.0,3.0,3.0,3.0,3.0,5.0,6.0,6.0,5.0,4.0,4.0,4.0,4.0,6.0,6.0,3.0,5.0,5.0,5.0,3.0,4.0,4.0,4.0,99.0,4.0,4.0,5.0,4.0,5.0,99.0,6.0,4.0,4.0,4.0,5.0,4.0,3.0,4.0,5.0,4.0,6.0,3.0,4.0,6.0,3.0,,5.0,5.0,5.0,5.0,5.0,2.0,4.0,5.0,5.0,5.0,3.0,4.0,4.0,3.0,4.0,4.0,4.0,4.0,4.0,4.0,4.0,3.0,3.0,4.0,4.0,3.0,,5.0,5.0,3.0,4.0,5.0,3.0,,4.1,3.0,4.666667,3.666667,5.333333,4.666667,4.333333,4.6
67390,906,2020-04-02 07:22:46,EN,29,Female,"College degree, bachelor, master",PhD/Doctorate,Full time employed,United States,no,Minnesota,Married/cohabiting,0.0,Yes,Isolated,1.0,0.0,Program A,,No,2.0,3.0,4.0,4.0,2.0,2.0,2.0,4.0,2.0,2.0,1.0,3.0,5.0,8.0,9.0,4.0,7.0,6.0,9.0,7.0,4.0,5.0,6.0,4.0,6.0,6.0,2.0,5.0,5.0,5.0,6.0,4.0,5.0,4.0,4.0,5.0,6.0,4.0,4.0,4.0,5.0,4.0,2.0,5.0,6.0,6.0,1.0,5.0,4.0,5.0,6.0,5.0,5.0,6.0,6.0,4.0,99.0,6.0,4.0,6.0,6.0,6.0,6.0,6.0,4.0,5.0,5.0,6.0,4.0,4.0,6.0,6.0,,6.0,6.0,5.0,6.0,6.0,6.0,6.0,6.0,5.0,6.0,3.0,5.0,6.0,4.0,5.0,4.0,2.0,2.0,4.0,5.0,4.0,5.0,4.0,5.0,5.0,4.0,,3.0,6.0,3.0,5.0,4.0,4.0,,2.7,3.0,3.333333,4.333333,4.333333,5.333333,5.666667,5.8
67411,10872,2020-04-03 10:06:25,EN,42,Female,"College degree, bachelor, master",College degree,Full time employed,United States,no,MA,Married/cohabiting,0.0,Yes,Isolated,1.0,0.0,Program A,,No,2.0,3.0,3.0,4.0,4.0,3.0,5.0,4.0,2.0,2.0,2.0,2.0,4.0,2.0,8.0,1.0,3.0,4.0,5.0,5.0,,6.0,6.0,6.0,6.0,6.0,0.0,4.0,6.0,6.0,1.0,2.0,4.0,4.0,4.0,4.0,2.0,2.0,4.0,6.0,6.0,6.0,3.0,4.0,2.0,5.0,1.0,6.0,2.0,5.0,99.0,2.0,5.0,2.0,99.0,2.0,99.0,5.0,5.0,6.0,6.0,6.0,4.0,5.0,2.0,4.0,5.0,6.0,3.0,3.0,4.0,5.0,Living with a chronic illness and being more at risk,,,,,,,,,,,,,,,,,,,,,,,,,,,,,,,,,,,2.2,2.666667,3.666667,2.333333,6.0,3.333333,5.666667,
67435,1238,2020-04-02 07:21:40,EN,38,Female,"College degree, bachelor, master",Up to 12 years of school,Full time employed,United States,no,Michigan,Married/cohabiting,1.0,Yes,Isolated,1.0,1.0,Program A,,No,2.0,3.0,4.0,4.0,3.0,4.0,4.0,4.0,2.0,2.0,4.0,5.0,5.0,5.0,7.0,,2.0,2.0,2.0,5.0,2.0,6.0,6.0,5.0,5.0,5.0,3.0,4.0,5.0,6.0,1.0,1.0,4.0,4.0,6.0,6.0,4.0,4.0,5.0,2.0,6.0,1.0,5.0,6.0,6.0,3.0,4.0,4.0,4.0,6.0,5.0,99.0,6.0,5.0,1.0,2.0,4.0,5.0,3.0,6.0,6.0,4.0,6.0,3.0,1.0,2.0,4.0,6.0,4.0,3.0,4.0,99.0,,6.0,2.0,2.0,3.0,6.0,2.0,6.0,6.0,5.0,6.0,2.0,1.0,2.0,3.0,4.0,2.0,1.0,1.0,5.0,4.0,4.0,1.0,4.0,1.0,1.0,4.0,,6.0,6.0,5.0,1.0,1.0,1.0,,2.6,4.666667,3.666667,3.333333,3.0,4.666667,3.333333,4.4
67439,33855,2020-04-02 16:24:55,EN,38,Female,"Some College, short continuing education or equivalent",Up to 6 years of school,Full time employed,United States,yes,,Divorced/widowed,3.0,Yes,Life carries on with minor changes,2.0,1.0,Program B,,No,3.0,3.0,3.0,4.0,4.0,2.0,4.0,3.0,2.0,1.0,3.0,3.0,3.0,4.0,8.0,5.0,8.0,5.0,8.0,8.0,5.0,5.0,6.0,6.0,6.0,6.0,2.0,5.0,5.0,5.0,2.0,4.0,4.0,3.0,3.0,4.0,4.0,3.0,5.0,3.0,5.0,3.0,2.0,4.0,4.0,4.0,4.0,4.0,,4.0,4.0,4.0,4.0,2.0,2.0,2.0,3.0,5.0,4.0,6.0,5.0,5.0,2.0,2.0,4.0,2.0,2.0,3.0,,2.0,3.0,5.0,,5.0,4.0,3.0,4.0,4.0,5.0,4.0,5.0,4.0,4.0,4.0,5.0,5.0,5.0,5.0,5.0,2.0,2.0,4.0,5.0,4.0,4.0,6.0,5.0,5.0,4.0,,4.0,5.0,4.0,4.0,4.0,2.0,,2.3,3.0,3.0,3.0,3.666667,4.333333,3.666667,4.2
67449,874,2020-04-02 07:14:05,EN,46,Female,"College degree, bachelor, master",College degree,Student,United States,no,Massachusetts,Single,0.0,Yes,Isolated,0.0,0.0,,Program D,Not sure,2.0,3.0,3.0,3.0,3.0,3.0,3.0,,2.0,3.0,5.0,4.0,5.0,8.0,9.0,6.0,6.0,7.0,7.0,8.0,7.0,5.0,5.0,5.0,5.0,6.0,4.0,6.0,5.0,6.0,5.0,5.0,4.0,5.0,6.0,4.0,6.0,6.0,1.0,6.0,6.0,6.0,3.0,6.0,6.0,4.0,2.0,5.0,99.0,6.0,99.0,5.0,2.0,1.0,1.0,99.0,99.0,5.0,5.0,5.0,3.0,4.0,5.0,5.0,4.0,6.0,6.0,2.0,2.0,2.0,6.0,99.0,,5.0,5.0,5.0,4.0,5.0,5.0,5.0,5.0,5.0,4.0,4.0,5.0,5.0,5.0,6.0,4.0,1.0,1.0,4.0,5.0,4.0,4.0,4.0,5.0,1.0,2.0,,3.0,4.0,2.0,4.0,4.0,5.0,I use exercise to moderate feelings of anxiety and depression. If at some point larger parks are closed or we can not go outside. I an screwed,2.777778,4.666667,4.666667,6.0,6.0,5.333333,4.666667,4.8
67490,924,2020-04-02 07:10:08,EN,70,Female,Up to 12 years of school,Up to 9 years of school,Retired,United States,no,North Carolina,Married/cohabiting,1.0,Yes,Life carries on with minor changes,3.0,0.0,,,,3.0,2.0,3.0,5.0,4.0,2.0,2.0,5.0,3.0,2.0,2.0,3.0,4.0,2.0,2.0,2.0,1.0,1.0,1.0,0.0,3.0,5.0,6.0,5.0,5.0,3.0,3.0,4.0,6.0,6.0,2.0,2.0,4.0,4.0,2.0,5.0,3.0,2.0,5.0,5.0,5.0,5.0,2.0,4.0,4.0,5.0,2.0,5.0,2.0,2.0,2.0,99.0,5.0,2.0,2.0,2.0,99.0,5.0,5.0,5.0,5.0,5.0,2.0,2.0,2.0,2.0,3.0,2.0,5.0,2.0,5.0,2.0,,5.0,2.0,2.0,5.0,4.0,5.0,5.0,5.0,5.0,5.0,4.0,2.0,,1.0,,,2.0,,4.0,2.0,,4.0,,6.0,,,,5.0,4.0,4.0,4.0,5.0,,,2.3,3.0,2.666667,2.333333,5.0,4.333333,5.0,4.3
67526,2834,2020-04-02 07:34:29,EN,77,Female,"College degree, bachelor, master",College degree,Retired,United States,no,Virginia,Married/cohabiting,0.0,Yes,Isolated,2.0,0.0,,Program C,No,2.0,3.0,3.0,4.0,3.0,2.0,3.0,2.0,3.0,2.0,3.0,3.0,3.0,8.0,9.0,7.0,7.0,9.0,2.0,9.0,9.0,5.0,5.0,5.0,6.0,6.0,4.0,5.0,4.0,5.0,4.0,4.0,1.0,4.0,1.0,3.0,6.0,5.0,3.0,3.0,5.0,3.0,4.0,5.0,5.0,4.0,4.0,4.0,99.0,99.0,99.0,99.0,3.0,6.0,4.0,4.0,99.0,6.0,5.0,5.0,5.0,2.0,99.0,6.0,2.0,5.0,5.0,2.0,2.0,2.0,6.0,4.0,,5.0,4.0,5.0,4.0,3.0,3.0,3.0,6.0,3.0,5.0,4.0,6.0,6.0,6.0,5.0,5.0,1.0,1.0,5.0,4.0,4.0,6.0,,4.0,4.0,5.0,,5.0,5.0,5.0,4.0,4.0,5.0,,2.7,3.0,3.0,5.0,3.666667,4.333333,3.666667,4.1
67586,817,2020-04-02 06:51:52,EN,59,Female,PhD/Doctorate,College degree,Full time employed,United States,no,Michigan,Married/cohabiting,1.0,Yes,Isolated,1.0,0.0,Program A,,No,5.0,2.0,4.0,2.0,3.0,5.0,3.0,3.0,4.0,3.0,4.0,3.0,3.0,2.0,5.0,4.0,4.0,4.0,6.0,7.0,0.0,3.0,6.0,6.0,6.0,6.0,0.0,6.0,5.0,6.0,2.0,2.0,3.0,5.0,4.0,5.0,4.0,2.0,5.0,5.0,5.0,6.0,1.0,6.0,6.0,6.0,2.0,6.0,2.0,5.0,99.0,99.0,2.0,5.0,2.0,5.0,,2.0,4.0,6.0,5.0,5.0,99.0,4.0,2.0,6.0,5.0,4.0,99.0,1.0,3.0,2.0,,5.0,5.0,5.0,5.0,6.0,5.0,6.0,6.0,4.0,5.0,1.0,2.0,5.0,1.0,5.0,4.0,1.0,1.0,4.0,4.0,2.0,1.0,5.0,5.0,3.0,2.0,,1.0,4.0,4.0,5.0,4.0,2.0,,3.6,3.333333,3.666667,2.666667,5.333333,6.0,5.666667,5.2
67591,955,2020-04-02 06:53:11,EN,53,Female,"College degree, bachelor, master",College degree,Self-employed,United States,no,Rhode Island,Married/cohabiting,1.0,Yes,Life carries on with minor changes,,,Program A,,No,4.0,4.0,3.0,3.0,2.0,3.0,2.0,3.0,4.0,3.0,3.0,2.0,2.0,4.0,5.0,2.0,4.0,4.0,8.0,7.0,0.0,5.0,5.0,5.0,5.0,6.0,0.0,4.0,2.0,4.0,6.0,1.0,2.0,5.0,3.0,4.0,6.0,4.0,2.0,5.0,4.0,5.0,2.0,5.0,5.0,6.0,1.0,6.0,6.0,6.0,99.0,6.0,5.0,4.0,3.0,4.0,99.0,6.0,6.0,4.0,5.0,99.0,5.0,5.0,4.0,99.0,4.0,4.0,3.0,3.0,6.0,99.0,,6.0,3.0,3.0,5.0,4.0,3.0,5.0,6.0,3.0,6.0,5.0,4.0,3.0,3.0,3.0,4.0,2.0,2.0,4.0,4.0,3.0,4.0,4.0,3.0,3.0,4.0,,5.0,5.0,3.0,3.0,5.0,2.0,,3.5,2.333333,3.666667,5.0,4.666667,5.0,6.0,4.4
67595,1042,2020-04-02 06:54:03,EN,28,Female,"College degree, bachelor, master",Up to 12 years of school,Full time employed,United States,no,Nebraska,Married/cohabiting,0.0,Yes,Life carries on with minor changes,1.0,0.0,,Program D,No,4.0,3.0,5.0,3.0,2.0,5.0,2.0,2.0,4.0,4.0,2.0,3.0,3.0,2.0,7.0,2.0,3.0,5.0,1.0,7.0,0.0,4.0,6.0,5.0,6.0,5.0,2.0,4.0,3.0,4.0,3.0,4.0,2.0,5.0,6.0,2.0,4.0,3.0,5.0,5.0,5.0,5.0,4.0,4.0,5.0,5.0,3.0,5.0,4.0,6.0,99.0,3.0,3.0,5.0,4.0,1.0,99.0,4.0,4.0,5.0,5.0,5.0,5.0,5.0,4.0,4.0,5.0,4.0,99.0,2.0,5.0,4.0,,5.0,6.0,5.0,5.0,6.0,4.0,6.0,5.0,5.0,6.0,1.0,4.0,5.0,2.0,4.0,4.0,5.0,5.0,4.0,4.0,2.0,4.0,4.0,4.0,3.0,3.0,,4.0,4.0,4.0,1.0,1.0,3.0,My grandfather who has dementia had a stroke last week and the facility where he is staying is n,4.0,2.666667,5.333333,3.0,5.0,4.0,4.666667,5.3
67610,1576,2020-04-03 07:00:38,EN,60,Female,Up to 12 years of school,Some College or equivalent,Retired,United States,no,Georgia,Married/cohabiting,3.0,Yes,Life carries on with minor changes,2.0,2.0,,Program C,No,1.0,2.0,3.0,4.0,4.0,2.0,4.0,4.0,1.0,1.0,1.0,1.0,1.0,7.0,9.0,1.0,6.0,8.0,1.0,10.0,0.0,5.0,6.0,6.0,6.0,6.0,0.0,6.0,5.0,5.0,2.0,5.0,5.0,6.0,4.0,4.0,4.0,4.0,2.0,6.0,6.0,6.0,1.0,6.0,6.0,5.0,1.0,6.0,2.0,4.0,1.0,99.0,5.0,5.0,99.0,1.0,4.0,6.0,99.0,6.0,4.0,5.0,99.0,5.0,1.0,1.0,1.0,1.0,4.0,1.0,5.0,1.0,,6.0,5.0,6.0,6.0,5.0,6.0,6.0,6.0,5.0,6.0,5.0,5.0,5.0,5.0,5.0,4.0,2.0,2.0,5.0,6.0,5.0,2.0,5.0,6.0,5.0,4.0,,2.0,4.0,2.0,2.0,2.0,5.0,I rely on my son to do most of the shopping for supplies.,1.8,1.0,4.333333,4.333333,6.0,6.0,5.666667,5.7
67658,964,2020-04-03 06:43:27,EN,39,Female,"College degree, bachelor, master",College degree,Not employed,United States,no,Va,Married/cohabiting,1.0,Yes,Isolated,1.0,1.0,,Program D,No,4.0,3.0,4.0,2.0,3.0,3.0,2.0,3.0,4.0,4.0,5.0,4.0,5.0,,5.0,,2.0,2.0,,5.0,,5.0,6.0,5.0,5.0,5.0,0.0,5.0,5.0,6.0,1.0,1.0,1.0,5.0,2.0,5.0,4.0,3.0,6.0,4.0,6.0,5.0,4.0,5.0,5.0,5.0,1.0,5.0,6.0,99.0,6.0,4.0,6.0,6.0,99.0,5.0,6.0,6.0,6.0,1.0,5.0,4.0,99.0,6.0,3.0,6.0,5.0,3.0,4.0,4.0,6.0,99.0,,5.0,2.0,1.0,2.0,2.0,1.0,3.0,2.0,2.0,5.0,1.0,3.0,2.0,2.0,2.0,5.0,3.0,3.0,5.0,6.0,5.0,2.0,5.0,6.0,3.0,1.0,"School closing and lack of school support has caused the most concern, distress, and worry!!",2.0,5.0,5.0,5.0,5.0,4.0,School/education!!,3.6,4.666667,3.0,2.666667,5.0,4.333333,5.333333,2.5
67664,2875,2020-04-03 07:14:28,EN,47,Female,"Some College, short continuing education or equivalent",College degree,Full time employed,United States,no,Michigan,Married/cohabiting,1.0,Yes,Isolated,1.0,0.0,Program A,,No,2.0,2.0,3.0,4.0,3.0,2.0,4.0,3.0,1.0,2.0,2.0,2.0,3.0,6.0,9.0,1.0,1.0,8.0,2.0,9.0,1.0,5.0,5.0,5.0,6.0,6.0,2.0,5.0,5.0,6.0,2.0,3.0,1.0,2.0,2.0,6.0,4.0,1.0,4.0,5.0,5.0,6.0,1.0,4.0,6.0,5.0,4.0,5.0,99.0,5.0,99.0,99.0,4.0,1.0,1.0,2.0,99.0,4.0,2.0,5.0,5.0,5.0,99.0,1.0,1.0,2.0,2.0,99.0,1.0,1.0,5.0,99.0,,,,,,,,,,,,,,,,,,,,,,,,,,,,,,,,,,,,2.2,2.333333,1.666667,2.666667,5.333333,5.333333,4.333333,
67715,1201,2020-04-03 06:39:02,SME,30,Female,PhD/Doctorate,Up to 12 years of school,Not employed,United States,yes,Connecticut,Single,0.0,Yes,Isolated,2.0,0.0,,Program C,No,4.0,3.0,4.0,5.0,3.0,4.0,2.0,2.0,4.0,3.0,1.0,2.0,2.0,7.0,9.0,6.0,9.0,6.0,10.0,10.0,6.0,5.0,6.0,5.0,6.0,5.0,4.0,6.0,6.0,6.0,1.0,5.0,4.0,6.0,5.0,3.0,4.0,1.0,5.0,5.0,5.0,6.0,2.0,5.0,5.0,5.0,4.0,4.0,99.0,5.0,99.0,5.0,5.0,1.0,1.0,4.0,1.0,5.0,5.0,6.0,6.0,6.0,4.0,2.0,4.0,2.0,1.0,4.0,1.0,2.0,2.0,1.0,,4.0,5.0,4.0,6.0,6.0,5.0,6.0,6.0,5.0,6.0,4.0,1.0,4.0,1.0,4.0,5.0,1.0,1.0,4.0,2.0,2.0,5.0,5.0,4.0,1.0,4.0,,3.0,5.0,5.0,5.0,6.0,3.0,"Después de 6 meses de búsqueda y de un proceso de selección, fui aceptada en una posición posdoctoral, pero no podrán contratarme hasta que todo esto pase. Lo cual lo hace incierto y me tiene en posición de sí trabajar, pero no.",3.4,1.666667,5.0,2.333333,5.333333,5.0,4.0,5.3
67798,777,2020-04-02 06:19:16,EN,43,Male,Up to 12 years of school,Up to 9 years of school,Full time employed,United States,no,California,Married/cohabiting,0.0,Yes,Life carries on with minor changes,2.0,0.0,,Program D,No,3.0,2.0,3.0,4.0,2.0,1.0,4.0,2.0,3.0,2.0,1.0,1.0,1.0,3.0,5.0,1.0,1.0,1.0,1.0,1.0,1.0,4.0,4.0,4.0,4.0,4.0,0.0,4.0,5.0,5.0,2.0,1.0,1.0,2.0,2.0,6.0,6.0,4.0,4.0,4.0,4.0,5.0,2.0,5.0,5.0,4.0,5.0,6.0,3.0,6.0,99.0,3.0,5.0,3.0,99.0,4.0,99.0,4.0,5.0,5.0,6.0,5.0,6.0,2.0,4.0,2.0,2.0,4.0,4.0,3.0,6.0,99.0,,5.0,5.0,3.0,5.0,5.0,2.0,2.0,5.0,2.0,5.0,1.0,4.0,2.0,3.0,2.0,2.0,4.0,5.0,4.0,4.0,4.0,4.0,4.0,5.0,1.0,2.0,,2.0,2.0,2.0,2.0,2.0,1.0,,2.6,1.0,1.666667,4.333333,4.333333,5.0,4.0,3.9
67856,619,2020-04-02 06:08:38,EN,37,Female,"College degree, bachelor, master",College degree,Full time employed,United States,no,Michigan,Single,0.0,Not sure,Life carries on with minor changes,1.0,0.0,Program B,,No,3.0,4.0,4.0,3.0,3.0,4.0,4.0,3.0,4.0,3.0,5.0,5.0,5.0,7.0,10.0,5.0,8.0,8.0,7.0,10.0,3.0,5.0,6.0,6.0,6.0,5.0,0.0,5.0,5.0,5.0,5.0,5.0,4.0,4.0,4.0,4.0,2.0,4.0,5.0,5.0,6.0,6.0,3.0,5.0,6.0,5.0,4.0,6.0,5.0,4.0,99.0,5.0,6.0,6.0,99.0,99.0,99.0,5.0,5.0,5.0,5.0,6.0,5.0,5.0,6.0,6.0,5.0,99.0,1.0,3.0,6.0,6.0,,6.0,6.0,6.0,6.0,6.0,6.0,6.0,6.0,6.0,6.0,2.0,6.0,6.0,2.0,6.0,3.0,6.0,5.0,5.0,5.0,2.0,2.0,5.0,5.0,6.0,2.0,,2.0,5.0,4.0,5.0,2.0,1.0,,3.3,5.0,3.666667,2.666667,5.666667,5.0,4.666667,6.0
67857,776,2020-04-02 06:11:14,EN,65,Female,"College degree, bachelor, master",College degree,Retired,United States,no,Virginia,Married/cohabiting,0.0,Yes,Isolated,1.0,0.0,,Program D,No,2.0,2.0,2.0,5.0,4.0,1.0,5.0,5.0,1.0,2.0,3.0,2.0,3.0,8.0,9.0,6.0,9.0,7.0,8.0,7.0,5.0,5.0,6.0,6.0,6.0,6.0,0.0,5.0,5.0,6.0,1.0,5.0,4.0,4.0,4.0,3.0,4.0,4.0,4.0,5.0,6.0,6.0,3.0,2.0,5.0,4.0,1.0,5.0,1.0,99.0,99.0,99.0,2.0,2.0,1.0,2.0,99.0,5.0,1.0,4.0,4.0,5.0,1.0,2.0,2.0,3.0,5.0,4.0,1.0,1.0,4.0,1.0,,4.0,6.0,6.0,4.0,5.0,6.0,5.0,6.0,,5.0,4.0,5.0,4.0,1.0,1.0,5.0,,1.0,5.0,2.0,4.0,4.0,5.0,6.0,5.0,4.0,,1.0,5.0,4.0,3.0,5.0,5.0,,1.5,2.666667,4.0,3.666667,5.666667,3.666667,5.0,5.222222
67872,1192,2020-04-02 06:15:46,EN,54,Female,"College degree, bachelor, master",College degree,Retired,United States,no,Michigan,Divorced/widowed,1.0,Yes,Isolated,2.0,0.0,,Program D,Not sure,3.0,1.0,3.0,5.0,4.0,2.0,2.0,4.0,4.0,1.0,2.0,1.0,3.0,3.0,7.0,3.0,6.0,6.0,2.0,6.0,2.0,6.0,6.0,6.0,6.0,6.0,0.0,4.0,6.0,5.0,6.0,1.0,5.0,2.0,2.0,4.0,6.0,5.0,3.0,5.0,6.0,5.0,1.0,6.0,6.0,6.0,2.0,5.0,5.0,99.0,6.0,6.0,6.0,5.0,5.0,1.0,99.0,6.0,1.0,6.0,6.0,6.0,99.0,1.0,1.0,1.0,1.0,6.0,4.0,5.0,3.0,3.0,,6.0,6.0,6.0,6.0,6.0,4.0,6.0,6.0,5.0,6.0,4.0,6.0,6.0,1.0,6.0,6.0,1.0,1.0,4.0,5.0,6.0,4.0,1.0,6.0,6.0,5.0,,6.0,6.0,6.0,6.0,6.0,2.0,Im asthmatic and immune compromised so I take MORE prepared cautions than most people.  Everyone is a potential threat.,2.3,2.0,2.333333,5.0,5.333333,6.0,5.333333,5.7
67935,742,2020-04-02 05:59:32,EN,66,Female,"College degree, bachelor, master",College degree,Retired,United States,no,Michigan,Divorced/widowed,0.0,Yes,Isolated,0.0,0.0,Program A,,No,3.0,3.0,3.0,4.0,2.0,3.0,3.0,3.0,3.0,4.0,5.0,4.0,5.0,6.0,9.0,1.0,1.0,3.0,2.0,9.0,0.0,5.0,5.0,5.0,6.0,6.0,0.0,4.0,6.0,5.0,4.0,2.0,4.0,4.0,2.0,5.0,6.0,2.0,4.0,5.0,6.0,5.0,4.0,5.0,4.0,3.0,6.0,3.0,99.0,99.0,99.0,99.0,,6.0,6.0,99.0,99.0,6.0,6.0,5.0,6.0,6.0,99.0,2.0,1.0,6.0,4.0,99.0,6.0,6.0,6.0,99.0,,2.0,4.0,4.0,1.0,2.0,1.0,2.0,4.0,1.0,4.0,1.0,1.0,6.0,1.0,2.0,4.0,3.0,3.0,5.0,4.0,3.0,4.0,1.0,5.0,5.0,1.0,,2.0,5.0,5.0,2.0,5.0,4.0,,3.1,4.666667,2.666667,3.666667,5.333333,4.0,2.333333,2.5
67969,4481,2020-04-03 06:56:55,EN,39,Male,"College degree, bachelor, master",College degree,Full time employed,United States,no,Massachusetts,Divorced/widowed,0.0,Yes,Isolated,1.0,0.0,Program A,,No,2.0,3.0,5.0,5.0,4.0,1.0,4.0,5.0,4.0,1.0,1.0,1.0,5.0,6.0,7.0,5.0,5.0,5.0,7.0,7.0,1.0,4.0,6.0,3.0,6.0,6.0,0.0,6.0,6.0,6.0,1.0,4.0,6.0,3.0,1.0,6.0,5.0,5.0,2.0,5.0,5.0,6.0,4.0,5.0,5.0,5.0,1.0,5.0,2.0,2.0,99.0,2.0,4.0,2.0,1.0,2.0,99.0,5.0,5.0,5.0,5.0,6.0,2.0,2.0,1.0,2.0,2.0,2.0,2.0,2.0,5.0,2.0,What is the end game going to look like?,6.0,6.0,5.0,6.0,6.0,6.0,6.0,6.0,6.0,6.0,1.0,1.0,6.0,1.0,4.0,5.0,2.0,1.0,4.0,5.0,5.0,2.0,6.0,4.0,1.0,4.0,,5.0,5.0,5.0,2.0,5.0,5.0,,2.2,2.333333,1.666667,5.0,5.333333,4.333333,5.333333,5.9
68028,1061,2020-04-03 05:51:55,EN,36,Female,"College degree, bachelor, master",College degree,Full time employed,United States,no,Michigan,Married/cohabiting,2.0,Yes,Isolated,2.0,2.0,,Program D,No,2.0,1.0,3.0,4.0,4.0,4.0,4.0,4.0,4.0,1.0,1.0,3.0,4.0,7.0,9.0,5.0,5.0,7.0,6.0,9.0,1.0,6.0,6.0,6.0,5.0,5.0,0.0,5.0,6.0,5.0,2.0,5.0,5.0,5.0,2.0,6.0,6.0,6.0,2.0,4.0,5.0,2.0,1.0,5.0,6.0,3.0,1.0,6.0,2.0,5.0,5.0,99.0,2.0,5.0,5.0,5.0,6.0,5.0,2.0,5.0,5.0,6.0,5.0,4.0,1.0,2.0,6.0,5.0,2.0,2.0,6.0,1.0,,6.0,6.0,6.0,6.0,6.0,6.0,6.0,6.0,6.0,6.0,2.0,2.0,6.0,1.0,4.0,5.0,1.0,1.0,5.0,4.0,4.0,5.0,2.0,5.0,4.0,3.0,,3.0,3.0,3.0,6.0,5.0,4.0,,2.3,2.666667,2.666667,5.666667,3.666667,5.666667,5.0,6.0
68042,848,2020-04-02 05:45:49,EN,37,Female,"College degree, bachelor, master",Some College or equivalent,Full time employed,United States,no,Wisconsin,Single,0.0,Yes,Isolated,0.0,0.0,,Program D,No,4.0,4.0,5.0,2.0,2.0,4.0,2.0,2.0,4.0,4.0,5.0,3.0,5.0,6.0,8.0,3.0,2.0,6.0,1.0,4.0,,6.0,6.0,6.0,6.0,6.0,0.0,4.0,5.0,5.0,5.0,5.0,5.0,5.0,4.0,6.0,5.0,2.0,5.0,5.0,6.0,4.0,4.0,5.0,5.0,5.0,2.0,5.0,6.0,6.0,99.0,6.0,6.0,6.0,99.0,99.0,99.0,6.0,6.0,6.0,6.0,5.0,5.0,5.0,6.0,6.0,6.0,6.0,5.0,4.0,6.0,6.0,,5.0,5.0,5.0,5.0,5.0,5.0,5.0,5.0,5.0,5.0,1.0,5.0,6.0,4.0,4.0,4.0,5.0,5.0,6.0,5.0,4.0,2.0,4.0,6.0,1.0,4.0,,2.0,3.0,3.0,3.0,5.0,4.0,,4.1,4.333333,3.333333,3.0,5.0,4.333333,5.0,5.0
68155,1277,2020-04-02 05:36:44,EN,39,Female,"College degree, bachelor, master",College degree,Self-employed,United States,yes,Wisconsin,Married/cohabiting,2.0,Yes,Life carries on with minor changes,1.0,2.0,,Program D,No,3.0,3.0,5.0,3.0,3.0,4.0,4.0,4.0,4.0,4.0,1.0,3.0,5.0,3.0,5.0,4.0,10.0,10.0,8.0,10.0,4.0,6.0,6.0,6.0,6.0,6.0,0.0,,6.0,6.0,2.0,5.0,4.0,4.0,3.0,6.0,6.0,4.0,2.0,4.0,6.0,6.0,1.0,6.0,6.0,6.0,3.0,5.0,6.0,5.0,5.0,6.0,6.0,2.0,1.0,1.0,5.0,6.0,3.0,6.0,6.0,6.0,2.0,2.0,4.0,4.0,2.0,2.0,4.0,2.0,3.0,4.0,,5.0,5.0,5.0,5.0,6.0,5.0,6.0,6.0,4.0,5.0,1.0,3.0,5.0,3.0,5.0,1.0,4.0,2.0,4.0,4.0,4.0,5.0,4.0,5.0,1.0,5.0,,5.0,5.0,5.0,6.0,5.0,1.0,Extremely worried that both my husband and I will need to be hospitalized and there will no one to take care of our children. Our families live abroad and they wouldnt be able to come get the kids.,3.3,3.0,2.666667,5.0,5.333333,6.0,5.0,5.2
68175,958,2020-04-02 05:29:26,EN,62,Female,"College degree, bachelor, master",Up to 12 years of school,Retired,United States,no,Michigan,Married/cohabiting,0.0,Yes,Isolated,1.0,0.0,,Program D,No,3.0,2.0,3.0,4.0,4.0,1.0,4.0,3.0,3.0,2.0,2.0,3.0,5.0,5.0,8.0,2.0,6.0,5.0,2.0,8.0,,5.0,6.0,6.0,5.0,5.0,0.0,4.0,6.0,6.0,5.0,4.0,1.0,4.0,1.0,6.0,3.0,3.0,5.0,3.0,5.0,4.0,5.0,5.0,5.0,6.0,2.0,6.0,4.0,4.0,99.0,99.0,5.0,5.0,2.0,2.0,99.0,6.0,5.0,6.0,5.0,5.0,2.0,4.0,4.0,3.0,4.0,1.0,4.0,5.0,5.0,1.0,,6.0,6.0,6.0,6.0,6.0,5.0,6.0,6.0,5.0,6.0,5.0,5.0,6.0,1.0,6.0,5.0,1.0,1.0,1.0,4.0,4.0,4.0,5.0,5.0,6.0,5.0,,4.0,6.0,5.0,5.0,4.0,1.0,,2.3,3.333333,2.0,2.666667,4.0,4.0,5.666667,5.8
68255,1048,2020-04-02 05:17:35,EN,41,Female,"Some College, short continuing education or equivalent",Up to 12 years of school,Not employed,United States,no,Michigan,Married/cohabiting,0.0,Yes,Isolated,1.0,0.0,,Program C,No,3.0,2.0,5.0,3.0,2.0,3.0,3.0,2.0,4.0,3.0,5.0,5.0,5.0,5.0,7.0,1.0,3.0,3.0,6.0,9.0,0.0,6.0,6.0,6.0,6.0,6.0,1.0,6.0,6.0,6.0,4.0,6.0,4.0,6.0,6.0,3.0,5.0,2.0,5.0,6.0,6.0,6.0,2.0,5.0,5.0,4.0,3.0,5.0,99.0,99.0,99.0,99.0,5.0,6.0,1.0,2.0,6.0,6.0,5.0,6.0,6.0,6.0,99.0,3.0,4.0,6.0,5.0,1.0,6.0,1.0,6.0,1.0,,2.0,6.0,6.0,6.0,6.0,4.0,6.0,6.0,5.0,4.0,2.0,1.0,,1.0,1.0,2.0,1.0,1.0,4.0,5.0,3.0,6.0,1.0,4.0,1.0,6.0,,6.0,6.0,6.0,4.0,6.0,4.0,,3.4,5.0,5.333333,3.0,6.0,5.0,4.333333,5.1
68410,2179,2020-04-02 05:05:24,ZH-T,24,Male,PhD/Doctorate,Up to 9 years of school,Student,United States,yes,CA,Single,0.0,No,Life carries on with minor changes,,,,Program D,Yes,4.0,2.0,4.0,2.0,2.0,2.0,3.0,2.0,4.0,2.0,2.0,2.0,2.0,4.0,8.0,8.0,8.0,5.0,5.0,7.0,9.0,2.0,5.0,5.0,6.0,4.0,8.0,4.0,5.0,5.0,2.0,3.0,6.0,5.0,5.0,5.0,3.0,5.0,5.0,5.0,4.0,5.0,2.0,5.0,5.0,5.0,5.0,5.0,6.0,6.0,1.0,6.0,5.0,4.0,1.0,6.0,3.0,99.0,4.0,6.0,6.0,3.0,6.0,6.0,6.0,2.0,3.0,6.0,6.0,5.0,3.0,6.0,,5.0,4.0,5.0,5.0,5.0,5.0,5.0,2.0,2.0,4.0,4.0,5.0,5.0,2.0,5.0,2.0,4.0,3.0,5.0,6.0,5.0,3.0,5.0,5.0,2.0,5.0,,5.0,5.0,4.0,4.0,5.0,2.0,,3.3,2.0,4.0,3.333333,4.666667,5.0,4.0,4.2
68557,963,2020-04-02 04:19:29,EN,37,Female,"College degree, bachelor, master",College degree,Full time employed,United States,no,Maryland,Married/cohabiting,2.0,Yes,Isolated,1.0,2.0,,Program C,No,2.0,3.0,4.0,4.0,3.0,2.0,2.0,3.0,3.0,2.0,2.0,3.0,3.0,6.0,8.0,7.0,6.0,9.0,7.0,8.0,6.0,2.0,3.0,4.0,5.0,5.0,4.0,3.0,5.0,5.0,5.0,4.0,4.0,5.0,5.0,5.0,3.0,3.0,3.0,4.0,5.0,2.0,3.0,4.0,5.0,4.0,3.0,5.0,2.0,5.0,5.0,2.0,4.0,5.0,99.0,5.0,5.0,5.0,4.0,4.0,4.0,5.0,99.0,4.0,2.0,5.0,4.0,5.0,2.0,2.0,6.0,6.0,,4.0,5.0,4.0,4.0,3.0,5.0,2.0,5.0,4.0,4.0,2.0,2.0,2.0,2.0,2.0,3.0,4.0,4.0,4.0,3.0,3.0,2.0,2.0,4.0,2.0,4.0,,2.0,2.0,2.0,4.0,5.0,2.0,,2.8,2.666667,4.0,3.333333,3.666667,4.333333,4.333333,4.0
68700,955,2020-04-02 03:58:31,EN,73,Male,"College degree, bachelor, master",Up to 12 years of school,Retired,United States,no,California,Married/cohabiting,1.0,Yes,Isolated,2.0,0.0,,Program D,No,3.0,4.0,3.0,4.0,2.0,3.0,1.0,3.0,2.0,3.0,1.0,1.0,1.0,7.0,9.0,2.0,1.0,7.0,8.0,10.0,8.0,5.0,5.0,5.0,5.0,5.0,2.0,4.0,6.0,6.0,4.0,2.0,1.0,6.0,5.0,1.0,4.0,6.0,3.0,4.0,4.0,5.0,4.0,5.0,5.0,4.0,1.0,5.0,2.0,99.0,99.0,99.0,3.0,4.0,2.0,4.0,99.0,99.0,1.0,1.0,4.0,5.0,99.0,3.0,2.0,2.0,4.0,2.0,4.0,1.0,5.0,1.0,,6.0,3.0,6.0,6.0,5.0,5.0,6.0,5.0,4.0,6.0,5.0,1.0,5.0,1.0,3.0,3.0,1.0,1.0,4.0,6.0,3.0,4.0,1.0,3.0,5.0,3.0,,4.0,4.0,1.0,5.0,2.0,5.0,,3.2,1.0,5.666667,4.666667,4.333333,4.333333,5.0,5.2
68766,989,2020-04-02 03:48:48,EN,56,Female,"College degree, bachelor, master",PhD/Doctorate,Full time employed,United States,no,Massachusetts,Married/cohabiting,0.0,No,Isolated,1.0,0.0,,Program C,Not sure,2.0,4.0,4.0,3.0,2.0,2.0,3.0,2.0,3.0,2.0,3.0,3.0,5.0,5.0,6.0,2.0,3.0,7.0,6.0,7.0,3.0,4.0,5.0,5.0,6.0,5.0,4.0,5.0,5.0,5.0,4.0,5.0,4.0,3.0,4.0,3.0,1.0,1.0,6.0,3.0,3.0,5.0,5.0,3.0,2.0,1.0,6.0,3.0,1.0,5.0,99.0,99.0,2.0,5.0,4.0,1.0,99.0,5.0,4.0,4.0,4.0,6.0,6.0,5.0,3.0,5.0,6.0,99.0,3.0,2.0,5.0,4.0,,4.0,5.0,3.0,3.0,6.0,4.0,4.0,6.0,3.0,4.0,2.0,4.0,4.0,4.0,5.0,4.0,2.0,2.0,5.0,2.0,2.0,3.0,5.0,3.0,3.0,3.0,,2.0,4.0,2.0,2.0,4.0,4.0,,3.1,3.666667,3.666667,1.0,3.666667,2.333333,1.666667,4.2
68849,2043,2020-04-02 03:50:51,EN,72,Female,"College degree, bachelor, master",College degree,Part time employed,United States,no,CA,Single,0.0,Yes,Isolated,0.0,0.0,,Program D,No,2.0,2.0,2.0,4.0,4.0,3.0,5.0,5.0,1.0,1.0,2.0,2.0,2.0,9.0,9.0,8.0,8.0,9.0,9.0,10.0,6.0,5.0,5.0,5.0,6.0,5.0,0.0,5.0,5.0,6.0,2.0,3.0,4.0,5.0,4.0,5.0,6.0,5.0,4.0,5.0,6.0,4.0,4.0,5.0,6.0,5.0,4.0,5.0,4.0,4.0,99.0,2.0,5.0,4.0,99.0,99.0,99.0,4.0,3.0,5.0,4.0,4.0,4.0,5.0,3.0,4.0,3.0,4.0,2.0,4.0,4.0,4.0,,5.0,5.0,6.0,6.0,6.0,5.0,6.0,5.0,4.0,5.0,3.0,2.0,4.0,2.0,4.0,4.0,2.0,4.0,6.0,4.0,4.0,5.0,4.0,3.0,4.0,4.0,,4.0,5.0,4.0,4.0,4.0,5.0,,1.7,2.0,3.666667,4.666667,5.0,4.666667,4.333333,5.3
69287,718,2020-04-02 02:18:00,EN,41,Female,PhD/Doctorate,PhD/Doctorate,Full time employed,United States,no,California,Married/cohabiting,0.0,Yes,Isolated,1.0,0.0,Program A,,Not sure,3.0,3.0,5.0,4.0,3.0,3.0,5.0,4.0,3.0,3.0,1.0,1.0,2.0,3.0,8.0,1.0,2.0,3.0,1.0,7.0,1.0,4.0,6.0,6.0,6.0,6.0,0.0,5.0,5.0,6.0,2.0,1.0,4.0,6.0,5.0,5.0,1.0,2.0,5.0,6.0,6.0,6.0,2.0,5.0,5.0,6.0,1.0,5.0,2.0,4.0,99.0,99.0,4.0,2.0,4.0,4.0,99.0,6.0,3.0,6.0,6.0,6.0,5.0,2.0,2.0,2.0,2.0,99.0,4.0,5.0,5.0,4.0,,6.0,6.0,6.0,6.0,6.0,6.0,6.0,6.0,6.0,6.0,2.0,2.0,6.0,1.0,4.0,4.0,1.0,1.0,2.0,5.0,6.0,4.0,6.0,6.0,6.0,3.0,,5.0,6.0,6.0,6.0,6.0,1.0,,2.8,1.333333,4.333333,1.666667,6.0,5.0,5.666667,6.0
69428,1446,2020-04-03 02:11:44,EN,38,Female,"College degree, bachelor, master",College degree,Full time employed,United States,no,Texas,Married/cohabiting,0.0,Yes,Isolated,1.0,0.0,,Program D,No,2.0,3.0,3.0,3.0,3.0,2.0,5.0,2.0,3.0,2.0,2.0,2.0,3.0,7.0,7.0,5.0,8.0,9.0,5.0,10.0,6.0,2.0,1.0,3.0,5.0,4.0,4.0,5.0,4.0,2.0,4.0,5.0,4.0,4.0,4.0,4.0,5.0,5.0,4.0,5.0,6.0,4.0,4.0,5.0,5.0,4.0,4.0,5.0,2.0,4.0,99.0,4.0,2.0,6.0,2.0,2.0,99.0,5.0,2.0,4.0,6.0,6.0,5.0,4.0,1.0,5.0,5.0,4.0,3.0,3.0,5.0,5.0,Concerned that local heath authorities are not making science based decisions.,6.0,5.0,3.0,6.0,6.0,3.0,6.0,6.0,3.0,5.0,3.0,5.0,6.0,2.0,2.0,2.0,4.0,5.0,6.0,4.0,3.0,2.0,3.0,5.0,2.0,3.0,Shibori dyeing project,6.0,6.0,5.0,6.0,4.0,1.0,"General uncertainty.  With no community spread of virus the county I'm in issued a ""shelter in place""   order.  Based on current CDC guidelines I think this is an overblown reaction,  fear reaction from a small town. There are zero cases in Alpine,  Texas and Terlingua Texas. I've essentially been ordered not to socialize with anyone outside my own home. Not even if you're outside with six feet of distance between you and another person,  all ""gatherings"" are banned,  no limit on number of people, just no gatherings at all. Very frustrating given 0 cases of SARS-CoV-2 in the local community.",2.6,2.333333,3.666667,4.333333,5.0,4.333333,4.0,4.9
69471,957,2020-04-03 01:56:27,EN,33,Female,"College degree, bachelor, master",Some College or equivalent,Not employed,United States,no,Maryland,Married/cohabiting,1.0,No,Isolated,1.0,0.0,,Program C,Not sure,3.0,3.0,2.0,4.0,3.0,3.0,4.0,3.0,3.0,3.0,1.0,2.0,2.0,7.0,9.0,2.0,1.0,6.0,4.0,9.0,3.0,5.0,5.0,5.0,6.0,6.0,3.0,6.0,6.0,6.0,3.0,4.0,2.0,4.0,4.0,5.0,5.0,3.0,4.0,4.0,6.0,3.0,3.0,5.0,6.0,3.0,2.0,4.0,6.0,3.0,4.0,6.0,2.0,3.0,1.0,2.0,4.0,6.0,6.0,4.0,3.0,4.0,5.0,2.0,2.0,2.0,5.0,2.0,4.0,1.0,4.0,1.0,,6.0,6.0,5.0,6.0,6.0,5.0,5.0,6.0,6.0,6.0,3.0,5.0,5.0,1.0,3.0,2.0,2.0,2.0,6.0,6.0,3.0,3.0,5.0,6.0,4.0,4.0,,2.0,3.0,3.0,2.0,4.0,3.0,"The implantation-lack there of- of national, state, and community interventions to safe guard and support vulnerable persons (DV, children of abuse, impoverished, homeless).",2.7,1.666667,3.333333,3.666667,4.333333,5.0,4.0,5.7
69505,2133,2020-04-02 02:09:20,EN,37,Male,PhD/Doctorate,College degree,Full time employed,United States,no,Kentucky,Married/cohabiting,2.0,Not sure,Life carries on with minor changes,1.0,2.0,Program A,,Not sure,3.0,4.0,4.0,3.0,2.0,4.0,2.0,2.0,3.0,5.0,2.0,4.0,5.0,7.0,8.0,3.0,3.0,5.0,1.0,7.0,1.0,4.0,6.0,6.0,5.0,6.0,1.0,6.0,3.0,5.0,5.0,2.0,4.0,5.0,6.0,4.0,5.0,4.0,3.0,4.0,6.0,6.0,3.0,5.0,4.0,3.0,4.0,4.0,2.0,6.0,5.0,6.0,6.0,5.0,99.0,5.0,6.0,6.0,5.0,5.0,6.0,6.0,5.0,5.0,4.0,5.0,5.0,4.0,4.0,5.0,6.0,5.0,,,,5.0,6.0,6.0,4.0,,6.0,,5.0,2.0,6.0,4.0,4.0,4.0,2.0,6.0,6.0,6.0,3.0,4.0,2.0,6.0,5.0,5.0,2.0,,3.0,5.0,5.0,5.0,5.0,2.0,,3.8,3.666667,4.666667,4.333333,5.333333,4.333333,3.333333,5.333333
69508,338,2020-04-03 01:39:34,FR,35,Male,PhD/Doctorate,Up to 12 years of school,Full time employed,United States,no,,Single,0.0,Yes,Life carries on as usual,0.0,0.0,Program A,,,,,,,,,,,,,,,,,,,,,,,,,,,,,,,,,,,,,,,,,,,,,,,,,,,,,,,,,,,,,,,,,,,,,,,,,,,,,,,,,,,,,,,,,,,,,,,,,,,,,,,,,,,,,,,,,,,,,
69601,681,2020-04-02 01:29:47,EN,32,Female,PhD/Doctorate,Some College or equivalent,Student,United States,no,California,Single,0.0,Yes,Isolated,0.0,0.0,,Program D,No,3.0,3.0,5.0,3.0,1.0,4.0,2.0,2.0,5.0,4.0,4.0,2.0,3.0,2.0,3.0,3.0,6.0,7.0,10.0,9.0,1.0,6.0,4.0,4.0,5.0,4.0,0.0,6.0,6.0,6.0,2.0,4.0,4.0,6.0,6.0,4.0,6.0,5.0,3.0,4.0,6.0,6.0,2.0,6.0,6.0,6.0,2.0,4.0,4.0,4.0,1.0,99.0,6.0,4.0,1.0,1.0,1.0,6.0,6.0,99.0,99.0,5.0,2.0,2.0,5.0,6.0,4.0,3.0,4.0,5.0,5.0,5.0,,4.0,5.0,5.0,4.0,5.0,5.0,5.0,5.0,4.0,3.0,4.0,2.0,3.0,2.0,3.0,2.0,1.0,2.0,5.0,3.0,5.0,5.0,4.0,3.0,2.0,2.0,,6.0,6.0,6.0,4.0,3.0,2.0,,4.0,3.0,5.0,5.0,5.333333,5.666667,5.0,4.5
69663,735,2020-04-02 01:19:22,SME,21,Female,"Some College, short continuing education or equivalent",Some College or equivalent,Not employed,United States,yes,Texas,Married/cohabiting,1.0,Yes,Isolated,4.0,1.0,Program A,,No,2.0,3.0,3.0,4.0,4.0,1.0,4.0,1.0,3.0,1.0,2.0,1.0,3.0,5.0,10.0,7.0,7.0,7.0,1.0,4.0,7.0,6.0,6.0,6.0,6.0,6.0,4.0,5.0,5.0,6.0,4.0,5.0,5.0,4.0,5.0,5.0,6.0,5.0,3.0,5.0,6.0,5.0,2.0,5.0,5.0,5.0,4.0,5.0,5.0,99.0,99.0,5.0,5.0,6.0,6.0,99.0,99.0,6.0,5.0,6.0,6.0,6.0,99.0,5.0,5.0,99.0,99.0,99.0,6.0,3.0,5.0,6.0,,5.0,5.0,5.0,5.0,5.0,5.0,5.0,5.0,5.0,6.0,5.0,5.0,5.0,5.0,6.0,6.0,5.0,5.0,5.0,5.0,4.0,5.0,5.0,6.0,6.0,5.0,,5.0,5.0,5.0,5.0,5.0,4.0,,2.4,2.0,3.666667,5.0,5.333333,5.0,4.333333,5.1
69684,1988,2020-04-02 01:37:54,EN,32,Female,"Some College, short continuing education or equivalent",Up to 12 years of school,Part time employed,United States,no,Oregon,Married/cohabiting,0.0,Yes,Isolated,1.0,0.0,,Program C,No,4.0,3.0,4.0,3.0,3.0,4.0,3.0,3.0,3.0,4.0,2.0,2.0,2.0,4.0,6.0,1.0,1.0,1.0,4.0,6.0,1.0,5.0,6.0,6.0,6.0,6.0,0.0,5.0,5.0,6.0,1.0,1.0,4.0,4.0,4.0,4.0,4.0,4.0,4.0,3.0,6.0,5.0,3.0,6.0,6.0,5.0,4.0,5.0,5.0,5.0,99.0,6.0,6.0,2.0,1.0,4.0,99.0,4.0,5.0,6.0,6.0,6.0,2.0,2.0,4.0,1.0,1.0,4.0,4.0,3.0,5.0,1.0,"I'm indigenous (Tlingit) living in the lower 48, and worry constantly for our elders. There are white people chartering private flights into remote villages looking for a ""corona haven"" where there are no restrictions on them moving around, and potentially bringing this virus to our people in remote places far from any possibility of medical care. And the ferry system was shut down in AK before the first COVID case popped up in Seattle-- if our elders or other people in our communities there become infected, there is little to no possibility of help in a lot of these places. I've had multiple breakdowns over this. Here's one recent example from a First Nations village in Canada: https://www.vice.com/en_ca/article/7kza79/quebec-couple-drove-to-old-crow-yukon-to-escape-coronavirus-angering-locals",5.0,6.0,5.0,5.0,5.0,4.0,5.0,6.0,4.0,5.0,3.0,3.0,5.0,2.0,5.0,4.0,6.0,6.0,4.0,4.0,4.0,3.0,1.0,6.0,1.0,1.0,"Listening to recordings of our Tlingit elders speaking, ASMR, audiobooks, reading ebooks, and warming wax (pleasant scents help me feel I'm in a safe place) all help. So do hot showers/baths, especially while listening to something pleasant.",2.0,4.0,6.0,4.0,3.0,5.0,"As an indigenous person, my trust in our government is always tenuous at best, but with how the US gov't isn't really taking coronavirus seriously I find myself extra wary of any information they put out. I trust Dr Fauci, and WHO. I think the CDC is trying, but wildly underfunded and I think they probably have extensive restrictions on what they're allowed to say and do because Trump is busy worrying about his POLL NUMBERS. I trust the US gov't even less than usual, so yes, I have been seeking out world news, regulations, information, and guidelines more than usual.   I'm a little afraid of losing my job. This is the first job I've ever had where I've had any benefits, even though I'm 32. I have paid sick leave, paid vacation time, and I'm ACTUALLY allowed to take it (many workplaces can tend to be punitive toward workers who use their paid leave at all, especially in retail and the service industry in general). I'm afraid the longer this goes on, the more expendable I look to our company. But also, as an asthmatic person who is immune-compromised, I'm afraid that the longer this goes on, the more expendable I and people like me look to the US gov't. Trump already wants to let us die to save the economy, and a few Republican representatives have voiced their support. I've heard people on the more conservative side of my family voice support for that idea. I never knew they'd rather I die than that the stock market take a dip. It hurts.",3.4,2.0,3.666667,3.666667,4.666667,5.333333,4.333333,5.0
69693,1707,2020-04-02 01:31:58,EN,75,Female,"College degree, bachelor, master",Up to 9 years of school,Retired,United States,no,Arizona,Married/cohabiting,0.0,Yes,Isolated,1.0,0.0,,,,5.0,5.0,4.0,3.0,2.0,2.0,3.0,2.0,3.0,3.0,5.0,5.0,4.0,5.0,9.0,4.0,1.0,4.0,3.0,6.0,0.0,6.0,6.0,6.0,6.0,6.0,1.0,5.0,6.0,5.0,1.0,1.0,5.0,6.0,6.0,4.0,5.0,2.0,5.0,6.0,6.0,5.0,2.0,3.0,5.0,4.0,,5.0,1.0,2.0,99.0,,4.0,1.0,99.0,4.0,99.0,6.0,4.0,6.0,6.0,6.0,99.0,99.0,3.0,6.0,1.0,6.0,1.0,2.0,2.0,99.0,,6.0,4.0,5.0,2.0,5.0,2.0,5.0,6.0,6.0,5.0,1.0,2.0,6.0,2.0,2.0,6.0,4.0,1.0,6.0,4.0,4.0,1.0,,4.0,5.0,1.0,,1.0,5.0,5.0,2.0,5.0,3.0,,3.6,4.666667,5.0,3.0,5.666667,4.333333,4.5,4.6
69730,1146,2020-04-02 01:17:43,FR,31,Female,PhD/Doctorate,College degree,Full time employed,United States,yes,,Single,0.0,Yes,Isolated,1.0,0.0,,,,3.0,4.0,4.0,,,3.0,,3.0,2.0,4.0,2.0,3.0,3.0,4.0,8.0,4.0,6.0,6.0,9.0,9.0,7.0,5.0,6.0,5.0,6.0,5.0,3.0,6.0,6.0,6.0,4.0,4.0,4.0,5.0,3.0,4.0,6.0,5.0,2.0,6.0,5.0,5.0,3.0,5.0,5.0,4.0,2.0,4.0,1.0,3.0,99.0,5.0,4.0,4.0,99.0,2.0,99.0,4.0,2.0,5.0,6.0,6.0,2.0,2.0,4.0,2.0,2.0,2.0,6.0,1.0,4.0,6.0,,6.0,5.0,5.0,5.0,5.0,5.0,5.0,6.0,4.0,5.0,2.0,4.0,6.0,1.0,4.0,5.0,1.0,1.0,3.0,2.0,4.0,5.0,3.0,2.0,1.0,5.0,,2.0,5.0,4.0,2.0,6.0,,,3.285714,2.666667,3.666667,5.333333,5.333333,4.666667,4.333333,5.1
69759,1093,2020-04-02 01:13:23,EN,47,Female,"College degree, bachelor, master",Up to 12 years of school,Full time employed,United States,no,Illinois,Married/cohabiting,2.0,Yes,Isolated,1.0,2.0,Program A,,No,1.0,1.0,3.0,5.0,4.0,3.0,5.0,3.0,1.0,1.0,1.0,1.0,1.0,9.0,10.0,,2.0,4.0,7.0,8.0,,6.0,6.0,6.0,6.0,6.0,0.0,6.0,6.0,5.0,1.0,4.0,2.0,4.0,3.0,5.0,4.0,2.0,5.0,6.0,6.0,6.0,4.0,3.0,6.0,5.0,4.0,5.0,1.0,4.0,4.0,1.0,2.0,1.0,1.0,1.0,5.0,6.0,1.0,5.0,6.0,5.0,3.0,3.0,1.0,2.0,1.0,4.0,3.0,1.0,5.0,1.0,Just adopted a new puppy beforehand so making sure his needs and challenges get met,6.0,6.0,6.0,6.0,6.0,6.0,6.0,6.0,6.0,6.0,4.0,1.0,1.0,1.0,3.0,6.0,1.0,1.0,5.0,6.0,4.0,1.0,5.0,5.0,1.0,3.0,Our state governor has done an awesome job so we follow him. Trump's crazy and makes no sense and too many Americans will die,4.0,6.0,5.0,3.0,5.0,5.0,"By government we mean we are following our governor, not our hopeless president I have been sewing masks for health care workers, pharmacists, and postal workers. My new neighbors have been checking in (we just moved to a house) and I feel a greater sense of community within our small city but also the world as a whole...it feels like more connected communication to try to help...despite frustrations...but the message is clearly that this is a global problem and not a national one (especially if you ignore Trump's voice)",1.7,1.0,3.0,2.666667,6.0,4.0,4.333333,6.0
69812,720,2020-04-03 01:00:18,EN,47,Female,"College degree, bachelor, master",College degree,Self-employed,United States,yes,California,Single,0.0,Yes,Isolated,0.0,0.0,Program B,,No,5.0,3.0,4.0,4.0,3.0,4.0,4.0,3.0,3.0,3.0,5.0,4.0,5.0,6.0,8.0,5.0,5.0,5.0,4.0,4.0,5.0,5.0,5.0,5.0,5.0,5.0,0.0,6.0,6.0,6.0,6.0,6.0,6.0,2.0,2.0,5.0,5.0,3.0,3.0,4.0,6.0,5.0,4.0,4.0,5.0,5.0,1.0,5.0,,4.0,99.0,3.0,6.0,6.0,99.0,,,,,,,2.0,,,1.0,6.0,6.0,,5.0,,,3.0,,,,,,,,,,,,,,,,,,,,,,,,,,,,,,,,,,,,3.2,4.666667,2.0,4.0,5.0,4.0,5.333333,
69845,834,2020-04-02 00:58:32,EN,61,Female,"College degree, bachelor, master",Up to 12 years of school,Part time employed,United States,no,Minnesota,Married/cohabiting,1.0,Yes,Life carries on with minor changes,3.0,0.0,,Program D,No,3.0,2.0,3.0,4.0,3.0,3.0,4.0,3.0,3.0,2.0,2.0,2.0,2.0,8.0,10.0,2.0,2.0,4.0,6.0,7.0,1.0,5.0,5.0,5.0,5.0,5.0,0.0,5.0,5.0,5.0,2.0,4.0,5.0,3.0,2.0,5.0,5.0,6.0,2.0,5.0,5.0,5.0,2.0,5.0,6.0,5.0,2.0,5.0,4.0,2.0,4.0,5.0,4.0,3.0,2.0,2.0,99.0,6.0,4.0,6.0,5.0,5.0,5.0,4.0,2.0,3.0,3.0,4.0,4.0,1.0,4.0,1.0,,6.0,2.0,5.0,5.0,6.0,5.0,6.0,6.0,5.0,5.0,2.0,6.0,5.0,5.0,5.0,4.0,2.0,2.0,5.0,5.0,4.0,4.0,4.0,5.0,3.0,4.0,,1.0,6.0,6.0,3.0,5.0,5.0,,2.6,2.0,2.333333,5.333333,5.0,5.333333,5.0,5.1
69869,969,2020-04-02 00:56:53,EN,35,Other/would rather not say,"College degree, bachelor, master",College degree,Self-employed,United States,no,Minnesota,Married/cohabiting,1.0,Yes,Isolated,2.0,1.0,Program A,,No,4.0,5.0,5.0,3.0,2.0,5.0,3.0,2.0,3.0,3.0,2.0,3.0,3.0,5.0,7.0,0.0,1.0,1.0,2.0,7.0,0.0,6.0,6.0,5.0,6.0,6.0,0.0,5.0,4.0,5.0,4.0,2.0,4.0,5.0,5.0,4.0,5.0,2.0,5.0,6.0,6.0,6.0,1.0,5.0,6.0,4.0,4.0,5.0,4.0,6.0,5.0,6.0,5.0,6.0,1.0,4.0,4.0,5.0,5.0,6.0,6.0,6.0,3.0,5.0,4.0,3.0,2.0,2.0,5.0,3.0,5.0,99.0,My volunteering being shut down,6.0,6.0,6.0,6.0,6.0,6.0,6.0,6.0,6.0,6.0,1.0,4.0,6.0,1.0,3.0,4.0,5.0,3.0,3.0,4.0,2.0,1.0,4.0,6.0,1.0,3.0,Spending time with pets,1.0,4.0,5.0,2.0,5.0,2.0,"My pets have become even more vital since isolating. We agreed to foster two cats (in addition to our own) for a shelter that was closing for the duration, and feeding and caring for them has brought more structure and grounding to my day than either of my jobs.",3.9,2.666667,4.333333,3.0,6.0,5.666667,4.0,6.0
69878,1639,2020-04-02 01:06:43,EN,20,Female,"Some College, short continuing education or equivalent",Some College or equivalent,Not employed,United States,no,Texas,Single,0.0,Yes,Isolated,5.0,0.0,,Program D,Yes,2.0,1.0,2.0,5.0,1.0,3.0,2.0,4.0,1.0,2.0,2.0,1.0,4.0,7.0,9.0,9.0,9.0,9.0,8.0,8.0,8.0,1.0,1.0,1.0,2.0,1.0,4.0,6.0,6.0,6.0,1.0,3.0,3.0,3.0,4.0,6.0,3.0,2.0,5.0,5.0,5.0,6.0,2.0,5.0,6.0,6.0,3.0,6.0,99.0,5.0,99.0,5.0,3.0,3.0,2.0,2.0,99.0,2.0,2.0,4.0,2.0,6.0,5.0,4.0,2.0,99.0,5.0,5.0,2.0,1.0,1.0,2.0,,5.0,5.0,5.0,6.0,6.0,6.0,6.0,6.0,6.0,6.0,3.0,6.0,6.0,5.0,5.0,4.0,5.0,4.0,6.0,6.0,2.0,3.0,5.0,6.0,6.0,3.0,,6.0,2.0,6.0,6.0,4.0,2.0,"Right now is changing my school and my relationship with my boyfriend and my family (uncle's, grandparents, cousins). We live in different cities and I'm not able to visit them",2.3,2.333333,2.666667,2.333333,5.333333,5.333333,5.333333,5.7
69911,1022,2020-04-02 00:51:43,EN,65,Female,"Some College, short continuing education or equivalent",Up to 12 years of school,Part time employed,United States,no,,Divorced/widowed,3.0,No,Isolated,6.0,4.0,Program A,,No,3.0,2.0,3.0,,3.0,2.0,4.0,4.0,2.0,2.0,2.0,,2.0,5.0,9.0,,3.0,8.0,,4.0,,4.0,6.0,6.0,6.0,6.0,0.0,6.0,6.0,5.0,2.0,6.0,5.0,5.0,2.0,6.0,5.0,3.0,5.0,4.0,5.0,1.0,5.0,5.0,5.0,5.0,1.0,5.0,4.0,2.0,6.0,2.0,2.0,5.0,2.0,2.0,2.0,4.0,2.0,6.0,5.0,5.0,2.0,2.0,2.0,2.0,5.0,2.0,2.0,2.0,6.0,2.0,,6.0,6.0,5.0,6.0,6.0,6.0,6.0,6.0,6.0,6.0,5.0,5.0,6.0,5.0,5.0,6.0,1.0,1.0,5.0,4.0,4.0,5.0,5.0,4.0,3.0,5.0,,1.0,5.0,2.0,5.0,2.0,4.0,Hoping the small business I work for survives,2.333333,2.0,2.666667,3.333333,3.333333,4.0,5.333333,5.9
70002,565,2020-04-03 00:30:15,EN,45,Female,"College degree, bachelor, master",Some College or equivalent,Full time employed,United States,no,AZ,Married/cohabiting,1.0,Yes,Isolated,2.0,0.0,,Program C,No,4.0,4.0,5.0,3.0,3.0,3.0,4.0,3.0,4.0,3.0,1.0,3.0,3.0,5.0,7.0,3.0,7.0,7.0,8.0,8.0,0.0,6.0,6.0,5.0,6.0,6.0,0.0,5.0,6.0,5.0,1.0,1.0,4.0,6.0,5.0,5.0,5.0,3.0,5.0,3.0,5.0,4.0,4.0,6.0,4.0,6.0,4.0,6.0,3.0,2.0,99.0,99.0,1.0,2.0,2.0,2.0,99.0,3.0,5.0,5.0,6.0,6.0,4.0,3.0,3.0,4.0,2.0,1.0,1.0,1.0,1.0,1.0,,6.0,5.0,6.0,6.0,6.0,6.0,6.0,6.0,6.0,6.0,1.0,1.0,5.0,1.0,5.0,5.0,1.0,1.0,6.0,6.0,5.0,4.0,6.0,4.0,6.0,1.0,,4.0,4.0,1.0,3.0,3.0,3.0,,3.4,2.333333,4.333333,3.333333,4.0,4.333333,5.0,5.9
70020,1401,2020-04-02 00:40:47,EN,42,Female,"College degree, bachelor, master",Some College or equivalent,Not employed,United States,no,Arizona,Married/cohabiting,0.0,Yes,Isolated,1.0,0.0,Program A,,No,3.0,3.0,3.0,3.0,3.0,2.0,4.0,3.0,3.0,2.0,4.0,1.0,5.0,5.0,9.0,2.0,8.0,7.0,8.0,10.0,1.0,5.0,5.0,5.0,6.0,6.0,2.0,6.0,6.0,5.0,1.0,2.0,1.0,6.0,6.0,2.0,4.0,4.0,4.0,3.0,6.0,2.0,2.0,4.0,6.0,6.0,4.0,6.0,99.0,4.0,99.0,99.0,4.0,5.0,1.0,2.0,99.0,3.0,4.0,5.0,5.0,6.0,4.0,4.0,1.0,5.0,4.0,6.0,1.0,1.0,4.0,1.0,,6.0,6.0,6.0,6.0,6.0,6.0,6.0,6.0,6.0,6.0,3.0,5.0,5.0,4.0,5.0,2.0,1.0,1.0,5.0,3.0,3.0,5.0,3.0,5.0,2.0,5.0,,4.0,5.0,2.0,2.0,4.0,5.0,"Trump gives news briefings that include incorrect and, at times, blatantly false information. Its distressing to have a person in charge that is so incompetent and it adds another layer of emotional toil to the pandemic.",2.7,3.333333,5.666667,3.666667,3.666667,5.0,5.0,6.0
70072,1177,2020-04-02 00:28:27,EN,70,Female,"College degree, bachelor, master",Some College or equivalent,Retired,United States,no,Arizona,Married/cohabiting,0.0,Yes,Life carries on with minor changes,1.0,1.0,,Program C,No,2.0,3.0,3.0,5.0,3.0,1.0,2.0,4.0,3.0,2.0,2.0,3.0,4.0,2.0,3.0,1.0,4.0,4.0,2.0,2.0,1.0,6.0,1.0,6.0,6.0,6.0,0.0,4.0,6.0,1.0,6.0,1.0,6.0,6.0,4.0,4.0,6.0,5.0,4.0,4.0,5.0,4.0,1.0,4.0,6.0,5.0,1.0,5.0,6.0,99.0,6.0,99.0,6.0,5.0,2.0,6.0,6.0,6.0,6.0,6.0,6.0,99.0,99.0,5.0,1.0,5.0,6.0,4.0,4.0,6.0,6.0,4.0,,5.0,5.0,5.0,5.0,5.0,5.0,5.0,5.0,5.0,5.0,5.0,4.0,4.0,2.0,2.0,5.0,1.0,1.0,5.0,4.0,4.0,5.0,2.0,4.0,1.0,4.0,,4.0,6.0,4.0,6.0,6.0,1.0,,2.4,3.0,4.333333,4.666667,4.333333,5.333333,5.333333,5.0
70096,1007,2020-04-03 00:21:00,EN,42,Female,"College degree, bachelor, master",Up to 12 years of school,Full time employed,United States,no,AZ,Married/cohabiting,3.0,Yes,Isolated,1.0,1.0,Program A,,Yes,5.0,4.0,5.0,3.0,3.0,4.0,3.0,2.0,3.0,3.0,5.0,3.0,5.0,4.0,7.0,3.0,8.0,5.0,7.0,6.0,7.0,5.0,6.0,5.0,5.0,5.0,6.0,5.0,5.0,6.0,2.0,2.0,1.0,5.0,5.0,3.0,5.0,3.0,4.0,5.0,5.0,4.0,3.0,5.0,5.0,6.0,1.0,5.0,4.0,5.0,5.0,99.0,5.0,3.0,5.0,6.0,4.0,5.0,2.0,5.0,6.0,5.0,6.0,2.0,2.0,5.0,5.0,4.0,5.0,2.0,5.0,1.0,,2.0,5.0,5.0,1.0,2.0,4.0,4.0,5.0,5.0,1.0,4.0,2.0,2.0,2.0,5.0,4.0,1.0,1.0,4.0,5.0,2.0,5.0,6.0,4.0,6.0,5.0,,4.0,4.0,2.0,5.0,4.0,1.0,"Lack of ability to be tested or even a sense of direction if we were to get sick.  So many mixed messages from those in authority or wil local decision making power.   Also, I have a child who is supposed to graduate in May and that celebration is gone.",3.7,4.333333,4.666667,3.666667,4.666667,4.666667,5.666667,3.4
70199,860,2020-04-02 00:03:03,EN,29,Female,"College degree, bachelor, master",Some College or equivalent,Full time employed,United States,no,AZ,Married/cohabiting,2.0,Yes,Isolated,1.0,2.0,Program A,,No,3.0,2.0,3.0,4.0,3.0,1.0,4.0,4.0,3.0,2.0,1.0,1.0,5.0,6.0,8.0,3.0,8.0,8.0,8.0,9.0,0.0,5.0,6.0,5.0,5.0,5.0,0.0,6.0,5.0,5.0,2.0,3.0,4.0,4.0,2.0,5.0,5.0,4.0,4.0,4.0,4.0,1.0,2.0,4.0,5.0,5.0,4.0,5.0,5.0,6.0,4.0,1.0,3.0,4.0,1.0,1.0,5.0,2.0,2.0,4.0,5.0,2.0,5.0,2.0,4.0,1.0,6.0,3.0,2.0,3.0,6.0,1.0,,6.0,4.0,4.0,5.0,6.0,6.0,6.0,6.0,6.0,6.0,2.0,4.0,4.0,1.0,5.0,4.0,1.0,3.0,6.0,3.0,5.0,3.0,5.0,2.0,1.0,2.0,,3.0,4.0,4.0,6.0,5.0,1.0,,2.3,2.333333,2.666667,4.0,3.0,4.666667,4.333333,5.5
70272,244,2020-04-02 23:45:31,EN,44,Female,"College degree, bachelor, master",Up to 12 years of school,Full time employed,United States,no,AZ,Married/cohabiting,4.0,Yes,Life carries on with minor changes,4.0,0.0,,Program D,,,,,,,,,,,,,,,,,,,,,,,,,,,,,,,,,,,,,,,,,,,,,,,,,,,,,,,,,,,,,,,,,,,,,,,,,,,,,,,,,,,,,,,,,,,,,,,,,,,,,,,,,,,,,,,,,,,,
70273,539,2020-04-02 23:49:33,EN,38,Other/would rather not say,"Some College, short continuing education or equivalent",Some College or equivalent,Full time employed,United States,no,Minnesota,Married/cohabiting,0.0,Yes,Isolated,2.0,0.0,Program A,,Yes,4.0,3.0,5.0,3.0,2.0,4.0,3.0,3.0,4.0,3.0,2.0,3.0,4.0,4.0,8.0,5.0,0.0,7.0,2.0,7.0,0.0,5.0,5.0,5.0,5.0,5.0,0.0,4.0,5.0,5.0,3.0,3.0,2.0,5.0,5.0,4.0,5.0,5.0,3.0,4.0,3.0,5.0,2.0,4.0,5.0,5.0,4.0,5.0,4.0,5.0,99.0,99.0,5.0,5.0,99.0,5.0,,4.0,5.0,5.0,99.0,5.0,6.0,5.0,5.0,4.0,5.0,99.0,5.0,4.0,6.0,99.0,,5.0,5.0,5.0,5.0,5.0,5.0,5.0,5.0,5.0,5.0,2.0,5.0,5.0,2.0,3.0,5.0,5.0,6.0,5.0,5.0,4.0,3.0,2.0,4.0,2.0,5.0,,2.0,5.0,5.0,5.0,5.0,4.0,I'm mostly worried about the unknowable ways this will permanently change the world.,3.6,3.0,4.333333,4.666667,4.0,4.666667,4.333333,5.0
70281,1401,2020-04-02 00:02:08,EN,31,Female,"College degree, bachelor, master",Up to 12 years of school,Full time employed,United States,no,Michigan,Married/cohabiting,1.0,Yes,Isolated,1.0,1.0,,Program D,No,3.0,3.0,5.0,3.0,2.0,4.0,2.0,2.0,5.0,4.0,2.0,4.0,4.0,3.0,1.0,0.0,4.0,7.0,5.0,5.0,0.0,2.0,3.0,3.0,5.0,6.0,0.0,6.0,5.0,5.0,6.0,1.0,4.0,4.0,3.0,6.0,4.0,2.0,5.0,6.0,5.0,5.0,2.0,3.0,4.0,4.0,4.0,6.0,3.0,6.0,4.0,2.0,2.0,4.0,99.0,5.0,6.0,5.0,4.0,4.0,6.0,5.0,6.0,3.0,5.0,4.0,6.0,2.0,6.0,2.0,6.0,2.0,,5.0,4.0,4.0,4.0,3.0,5.0,4.0,5.0,5.0,3.0,1.0,4.0,4.0,1.0,5.0,4.0,2.0,5.0,2.0,2.0,4.0,4.0,6.0,2.0,2.0,4.0,Weed,6.0,6.0,6.0,1.0,6.0,5.0,The Qanon nonsense and how into it my family are getting is scary. They dont believe in the virus or if they so think it's being used a smoke screen. They are waiting for a signal to tell them it's time to take down the bad guys.,3.9,3.333333,2.666667,2.666667,5.333333,4.0,4.333333,4.2
70342,2013,2020-04-02 00:04:06,EN,49,Female,"College degree, bachelor, master",Some College or equivalent,Full time employed,United States,no,AZ,Single,0.0,Yes,Isolated,1.0,0.0,,Program C,No,2.0,1.0,3.0,4.0,4.0,1.0,3.0,4.0,2.0,2.0,2.0,2.0,2.0,4.0,7.0,1.0,3.0,1.0,4.0,7.0,2.0,5.0,6.0,5.0,4.0,4.0,2.0,6.0,6.0,6.0,1.0,2.0,4.0,4.0,2.0,5.0,5.0,6.0,1.0,6.0,4.0,6.0,4.0,3.0,3.0,5.0,4.0,5.0,3.0,3.0,99.0,1.0,3.0,4.0,1.0,1.0,99.0,5.0,5.0,5.0,6.0,6.0,5.0,4.0,1.0,4.0,3.0,1.0,1.0,1.0,3.0,1.0,,5.0,6.0,6.0,6.0,6.0,5.0,6.0,6.0,6.0,5.0,4.0,1.0,6.0,1.0,4.0,5.0,1.0,1.0,6.0,3.0,5.0,4.0,4.0,4.0,1.0,3.0,,4.0,3.0,3.0,3.0,3.0,4.0,,2.0,2.0,2.666667,5.666667,5.333333,3.0,4.333333,5.7
70359,503,2020-04-01 23:36:45,EN,26,Female,"College degree, bachelor, master",Up to 12 years of school,Full time employed,United States,yes,California,Single,0.0,Yes,Isolated,2.0,1.0,,Program D,No,5.0,5.0,5.0,3.0,5.0,2.0,5.0,5.0,5.0,5.0,5.0,5.0,5.0,7.0,8.0,7.0,8.0,8.0,10.0,10.0,6.0,6.0,6.0,6.0,6.0,6.0,4.0,6.0,6.0,6.0,6.0,5.0,4.0,6.0,6.0,3.0,5.0,4.0,3.0,3.0,5.0,4.0,3.0,3.0,5.0,5.0,4.0,5.0,99.0,6.0,99.0,6.0,4.0,6.0,2.0,6.0,6.0,3.0,4.0,5.0,6.0,6.0,4.0,99.0,4.0,6.0,4.0,4.0,6.0,4.0,5.0,6.0,,4.0,5.0,4.0,3.0,5.0,4.0,5.0,5.0,4.0,4.0,3.0,3.0,5.0,3.0,4.0,5.0,5.0,5.0,5.0,3.0,5.0,5.0,3.0,5.0,1.0,4.0,,3.0,3.0,3.0,5.0,6.0,1.0,,3.3,5.0,5.333333,4.333333,4.0,4.0,4.333333,4.3
70407,1376,2020-04-01 23:45:18,EN,48,Female,"College degree, bachelor, master",College degree,Retired,United States,no,Texas,Single,1.0,Yes,Life carries on with minor changes,,,Program A,,Not sure,3.0,4.0,4.0,2.0,1.0,4.0,3.0,1.0,2.0,4.0,3.0,2.0,3.0,6.0,8.0,1.0,8.0,4.0,6.0,9.0,1.0,5.0,6.0,5.0,5.0,5.0,1.0,6.0,3.0,2.0,3.0,2.0,2.0,5.0,3.0,4.0,2.0,1.0,5.0,6.0,6.0,6.0,4.0,4.0,5.0,3.0,5.0,5.0,5.0,4.0,5.0,1.0,5.0,1.0,1.0,4.0,99.0,4.0,2.0,4.0,6.0,6.0,99.0,1.0,2.0,4.0,3.0,5.0,1.0,1.0,4.0,2.0,Being in an essential position and having to leave child home alone all day,4.0,5.0,5.0,5.0,5.0,6.0,5.0,5.0,5.0,5.0,4.0,5.0,5.0,3.0,5.0,5.0,5.0,4.0,5.0,5.0,3.0,1.0,2.0,4.0,3.0,1.0,Info from local government...much more reassuring than from federal or state govt,5.0,3.0,6.0,4.0,5.0,6.0,"Sudden, non-Coronavirus illness (major) of parent in another state has been a major source of stress. Trying to educate my son (on the autism spectrum) while working for local law enforcement has been a challenge  Being a single parent and trying to plan for just-in-case scenarios has been very stress inducing",3.8,2.666667,3.666667,1.666667,6.0,4.0,3.333333,5.0
70415,931,2020-04-01 23:37:10,EN,56,Female,"College degree, bachelor, master",College degree,Full time employed,United States,no,AZ,Divorced/widowed,1.0,No,Isolated,2.0,0.0,Program A,,No,3.0,5.0,4.0,3.0,3.0,4.0,3.0,3.0,2.0,4.0,5.0,4.0,4.0,6.0,8.0,7.0,8.0,8.0,3.0,8.0,4.0,5.0,6.0,4.0,6.0,6.0,2.0,6.0,5.0,5.0,5.0,4.0,2.0,6.0,5.0,2.0,3.0,2.0,4.0,4.0,5.0,4.0,1.0,6.0,6.0,2.0,5.0,5.0,2.0,6.0,99.0,1.0,4.0,4.0,2.0,5.0,99.0,6.0,4.0,3.0,3.0,4.0,6.0,5.0,4.0,5.0,3.0,4.0,2.0,2.0,6.0,2.0,,6.0,5.0,6.0,6.0,6.0,6.0,6.0,6.0,6.0,6.0,4.0,5.0,6.0,4.0,5.0,6.0,1.0,1.0,5.0,5.0,2.0,6.0,4.0,3.0,4.0,4.0,,4.0,5.0,2.0,4.0,5.0,6.0,,3.4,4.333333,5.333333,2.666667,4.333333,6.0,3.0,5.9
70488,537,2020-04-01 23:15:35,EN,37,Other/would rather not say,"College degree, bachelor, master",College degree,Part time employed,United States,no,California,Married/cohabiting,0.0,No,Isolated,2.0,0.0,,Program C,No,5.0,4.0,5.0,3.0,3.0,,3.0,3.0,2.0,3.0,3.0,3.0,4.0,5.0,8.0,2.0,1.0,5.0,5.0,7.0,1.0,2.0,3.0,5.0,6.0,6.0,0.0,6.0,4.0,4.0,4.0,4.0,3.0,6.0,6.0,2.0,5.0,4.0,3.0,4.0,6.0,6.0,3.0,5.0,5.0,3.0,5.0,4.0,2.0,5.0,99.0,5.0,4.0,5.0,99.0,1.0,99.0,4.0,4.0,6.0,5.0,6.0,1.0,2.0,2.0,4.0,5.0,2.0,4.0,2.0,6.0,99.0,,6.0,5.0,5.0,6.0,6.0,5.0,6.0,6.0,5.0,6.0,2.0,2.0,5.0,1.0,1.0,6.0,5.0,5.0,4.0,5.0,4.0,4.0,2.0,5.0,2.0,3.0,,2.0,4.0,4.0,5.0,3.0,3.0,,3.444444,3.333333,5.666667,4.333333,5.333333,4.666667,3.0,5.6
70544,1057,2020-04-01 23:15:08,EN,61,Female,"College degree, bachelor, master",Up to 9 years of school,Retired,United States,no,az,Married/cohabiting,1.0,Yes,Isolated,2.0,0.0,Program A,,No,3.0,3.0,4.0,3.0,3.0,2.0,3.0,3.0,3.0,3.0,1.0,2.0,2.0,7.0,8.0,5.0,3.0,7.0,5.0,1.0,3.0,5.0,5.0,5.0,6.0,6.0,3.0,6.0,6.0,5.0,1.0,3.0,6.0,3.0,4.0,4.0,3.0,1.0,6.0,4.0,5.0,6.0,4.0,5.0,5.0,4.0,4.0,5.0,2.0,1.0,5.0,6.0,5.0,2.0,1.0,3.0,99.0,6.0,2.0,6.0,6.0,6.0,1.0,1.0,2.0,3.0,2.0,2.0,1.0,1.0,6.0,1.0,How this pandemic will reshape society,6.0,3.0,1.0,4.0,4.0,3.0,4.0,5.0,4.0,6.0,1.0,3.0,1.0,1.0,1.0,4.0,1.0,1.0,4.0,3.0,6.0,2.0,2.0,5.0,1.0,5.0,,3.0,6.0,4.0,4.0,2.0,3.0,,3.0,1.666667,3.333333,1.666667,5.0,4.333333,4.0,4.0
70552,522,2020-04-02 23:14:21,EN,30,Female,"College degree, bachelor, master",Some College or equivalent,Not employed,United States,yes,Florida,Married/cohabiting,0.0,Yes,Isolated,1.0,0.0,,Program D,No,3.0,3.0,3.0,4.0,3.0,2.0,4.0,4.0,4.0,3.0,3.0,1.0,3.0,6.0,9.0,2.0,4.0,4.0,4.0,8.0,5.0,1.0,4.0,4.0,6.0,6.0,5.0,6.0,5.0,5.0,3.0,1.0,2.0,4.0,2.0,5.0,5.0,6.0,6.0,6.0,4.0,5.0,4.0,3.0,5.0,5.0,4.0,3.0,,,,,,,,,,,,,,,,,,,,,,,,,,,,,,,,,,,,,,,,,,,,,,,,,,,,,,,,,,,,2.7,2.333333,2.666667,4.0,5.0,3.666667,3.666667,
70575,4584,2020-04-02 00:06:16,EN,78,Male,PhD/Doctorate,Some College or equivalent,Retired,United States,no,"IL, IN",Divorced/widowed,0.0,Yes,Isolated,0.0,0.0,,Program D,No,2.0,2.0,3.0,5.0,4.0,2.0,5.0,4.0,3.0,1.0,4.0,1.0,3.0,5.0,10.0,1.0,3.0,7.0,4.0,6.0,0.0,6.0,6.0,6.0,6.0,6.0,0.0,6.0,6.0,6.0,1.0,6.0,5.0,5.0,1.0,6.0,6.0,4.0,2.0,4.0,5.0,6.0,1.0,2.0,5.0,6.0,1.0,5.0,2.0,1.0,99.0,99.0,5.0,4.0,99.0,99.0,99.0,6.0,2.0,5.0,6.0,4.0,99.0,3.0,2.0,5.0,5.0,1.0,1.0,1.0,5.0,2.0,"Growing older & losing familiar skills, exercise, my CKD moving to Stage 4, then 5, living with dialysis",6.0,3.0,6.0,6.0,5.0,5.0,5.0,6.0,5.0,6.0,2.0,6.0,6.0,5.0,5.0,2.0,,,,5.0,5.0,3.0,6.0,6.0,1.0,1.0,"Dont play video games, dont watch TV or streaming movies,",2.0,6.0,5.0,4.0,1.0,5.0,"Putting myself into Quarantine early because of my CKD & age| Lack of new anti-biotics to fight MRSAs, many Covid-19 deaths are from bacterial pneumonia, as well as lung cells oxygen dysfunction, & multiple organs failure. Not a reasonable way to celebrate ones EOL.",1.9,2.666667,2.333333,5.0,5.0,4.333333,5.666667,5.3
70585,1591,2020-04-01 23:14:51,EN,33,Female,"College degree, bachelor, master",College degree,Not employed,United States,no,New York,Married/cohabiting,0.0,Yes,Isolated,1.0,0.0,,Program C,No,4.0,2.0,5.0,5.0,3.0,2.0,5.0,3.0,4.0,1.0,1.0,1.0,2.0,7.0,8.0,3.0,7.0,7.0,5.0,7.0,2.0,4.0,6.0,5.0,6.0,6.0,2.0,6.0,6.0,6.0,2.0,2.0,6.0,2.0,4.0,5.0,6.0,6.0,1.0,6.0,6.0,6.0,4.0,4.0,6.0,4.0,4.0,6.0,4.0,6.0,99.0,5.0,2.0,2.0,99.0,1.0,99.0,5.0,4.0,6.0,6.0,5.0,99.0,3.0,4.0,1.0,2.0,1.0,2.0,1.0,4.0,1.0,,6.0,6.0,6.0,6.0,6.0,6.0,6.0,6.0,6.0,6.0,1.0,6.0,6.0,2.0,5.0,4.0,1.0,1.0,6.0,2.0,4.0,1.0,5.0,5.0,1.0,4.0,,1.0,5.0,6.0,1.0,6.0,5.0,,2.6,1.333333,2.666667,6.0,6.0,4.333333,4.333333,6.0
70636,794,2020-04-02 22:52:56,EN,29,Male,"College degree, bachelor, master",College degree,Full time employed,United States,yes,Kansas,Married/cohabiting,1.0,No,Life carries on with minor changes,1.0,0.0,Program B,,No,1.0,3.0,1.0,3.0,3.0,4.0,4.0,4.0,2.0,1.0,2.0,1.0,1.0,7.0,8.0,3.0,6.0,8.0,3.0,8.0,7.0,6.0,6.0,6.0,3.0,5.0,8.0,4.0,5.0,4.0,1.0,4.0,5.0,4.0,4.0,4.0,6.0,3.0,4.0,4.0,4.0,4.0,3.0,5.0,4.0,3.0,4.0,6.0,1.0,1.0,1.0,1.0,4.0,3.0,1.0,4.0,4.0,1.0,4.0,1.0,1.0,4.0,6.0,3.0,1.0,3.0,1.0,2.0,1.0,1.0,1.0,3.0,,,,,,,,,,,,,,,,,,,,,,,,,,,,,,,,,,,,2.2,1.333333,3.666667,4.0,4.0,4.333333,4.0,
70647,695,2020-04-01 22:47:31,EN,35,Female,"College degree, bachelor, master",College degree,Full time employed,United States,no,Illinois,Married/cohabiting,0.0,No,Isolated,1.0,0.0,Program A,,No,,3.0,2.0,4.0,4.0,3.0,4.0,2.0,2.0,2.0,1.0,1.0,1.0,7.0,9.0,2.0,1.0,5.0,1.0,7.0,1.0,1.0,5.0,5.0,6.0,6.0,0.0,6.0,3.0,5.0,1.0,3.0,1.0,3.0,1.0,4.0,6.0,6.0,1.0,3.0,5.0,5.0,4.0,5.0,5.0,3.0,6.0,3.0,6.0,6.0,99.0,5.0,5.0,4.0,1.0,4.0,99.0,6.0,5.0,4.0,5.0,6.0,1.0,1.0,2.0,1.0,1.0,5.0,5.0,,2.0,1.0,,6.0,6.0,6.0,5.0,6.0,2.0,6.0,6.0,3.0,5.0,4.0,6.0,5.0,5.0,5.0,6.0,6.0,5.0,5.0,5.0,3.0,2.0,5.0,6.0,1.0,4.0,,1.0,2.0,5.0,2.0,1.0,3.0,,2.444444,1.0,2.333333,6.0,4.333333,4.333333,2.333333,5.1
70653,946,2020-04-01 22:50:44,SME,31,Female,PhD/Doctorate,College degree,Student,United States,yes,,Single,0.0,Yes,Isolated,0.0,0.0,,Program C,No,1.0,1.0,4.0,4.0,3.0,1.0,4.0,3.0,3.0,1.0,4.0,3.0,4.0,7.0,9.0,4.0,8.0,7.0,7.0,8.0,5.0,5.0,5.0,5.0,5.0,5.0,5.0,5.0,5.0,5.0,4.0,5.0,1.0,6.0,4.0,4.0,5.0,4.0,5.0,5.0,6.0,5.0,3.0,6.0,6.0,6.0,1.0,4.0,5.0,4.0,99.0,6.0,99.0,5.0,99.0,5.0,99.0,6.0,4.0,6.0,5.0,6.0,6.0,5.0,5.0,6.0,5.0,99.0,3.0,6.0,6.0,5.0,,5.0,5.0,5.0,4.0,5.0,5.0,5.0,4.0,5.0,5.0,4.0,6.0,5.0,5.0,4.0,3.0,1.0,1.0,5.0,4.0,1.0,4.0,6.0,4.0,1.0,4.0,,2.0,2.0,2.0,2.0,2.0,1.0,,2.1,3.666667,4.333333,3.666667,5.333333,5.333333,5.333333,4.8
70678,981,2020-04-01 22:48:06,EN,23,Male,"College degree, bachelor, master",College degree,Self-employed,United States,no,Florida,Married/cohabiting,1.0,Yes,Life carries on with minor changes,3.0,1.0,,Program C,Not sure,4.0,2.0,3.0,4.0,3.0,2.0,3.0,3.0,3.0,1.0,3.0,2.0,3.0,6.0,9.0,2.0,5.0,2.0,7.0,10.0,1.0,5.0,6.0,6.0,6.0,6.0,0.0,3.0,3.0,2.0,2.0,2.0,1.0,3.0,3.0,6.0,3.0,3.0,5.0,6.0,5.0,6.0,4.0,5.0,5.0,6.0,1.0,5.0,2.0,1.0,4.0,2.0,2.0,2.0,3.0,3.0,6.0,3.0,2.0,1.0,6.0,5.0,3.0,2.0,1.0,2.0,4.0,3.0,4.0,4.0,5.0,2.0,,6.0,5.0,6.0,6.0,6.0,6.0,6.0,6.0,6.0,6.0,1.0,5.0,6.0,6.0,6.0,5.0,2.0,2.0,6.0,6.0,3.0,2.0,5.0,5.0,4.0,1.0,,4.0,4.0,4.0,2.0,4.0,1.0,"I am a scientist. I have lab skills that I know can be put to use helping this global issue. While the research I do for spinal cord injury is amazing, I cant help but feel that I wish I could be dedicating myself to the pressing difficulties at hand. I feel like Im full of adrenaline, but tied down.",2.6,2.666667,2.333333,2.666667,5.666667,4.333333,5.666667,5.9
70684,641,2020-04-02 22:41:30,EN,32,Female,"College degree, bachelor, master",Up to 12 years of school,Full time employed,United States,no,Oregon,Married/cohabiting,2.0,Yes,Isolated,3.0,2.0,Program B,,No,1.0,3.0,4.0,4.0,3.0,2.0,3.0,3.0,3.0,3.0,2.0,2.0,3.0,7.0,8.0,3.0,7.0,6.0,4.0,6.0,2.0,3.0,4.0,3.0,5.0,5.0,3.0,5.0,4.0,4.0,2.0,3.0,1.0,3.0,2.0,5.0,4.0,3.0,4.0,3.0,4.0,3.0,4.0,4.0,4.0,3.0,3.0,5.0,99.0,3.0,99.0,99.0,4.0,4.0,2.0,2.0,4.0,5.0,4.0,5.0,4.0,5.0,99.0,4.0,3.0,4.0,5.0,3.0,3.0,3.0,4.0,3.0,Im both pregnant and an emergency nurse. I will be exposed and the information on pregnancy is limited. I fret about this most.,6.0,5.0,5.0,6.0,5.0,5.0,6.0,6.0,5.0,6.0,3.0,3.0,5.0,5.0,3.0,3.0,1.0,1.0,4.0,4.0,4.0,3.0,5.0,4.0,2.0,4.0,,5.0,5.0,5.0,4.0,5.0,5.0,,2.7,2.333333,2.333333,3.333333,3.333333,3.666667,4.0,5.5
70692,680,2020-04-01 22:40:34,EN,34,Female,"College degree, bachelor, master",College degree,Full time employed,United States,no,Minnesota,Married/cohabiting,0.0,Yes,Isolated,1.0,0.0,Program A,,No,4.0,5.0,5.0,2.0,3.0,4.0,3.0,1.0,5.0,4.0,3.0,3.0,3.0,5.0,8.0,,,6.0,3.0,8.0,,5.0,6.0,6.0,5.0,5.0,2.0,4.0,5.0,5.0,2.0,1.0,5.0,5.0,4.0,3.0,4.0,1.0,5.0,5.0,6.0,6.0,4.0,4.0,4.0,2.0,5.0,4.0,5.0,6.0,99.0,6.0,5.0,4.0,2.0,1.0,99.0,5.0,5.0,6.0,6.0,5.0,1.0,3.0,4.0,4.0,3.0,4.0,4.0,5.0,6.0,4.0,Fascists taking advantage of fear to acquire more power.,5.0,5.0,5.0,6.0,5.0,4.0,5.0,6.0,4.0,5.0,1.0,4.0,5.0,2.0,4.0,2.0,5.0,5.0,4.0,4.0,4.0,2.0,1.0,5.0,1.0,4.0,,1.0,5.0,4.0,5.0,5.0,2.0,,4.2,3.0,4.333333,2.333333,5.666667,3.666667,2.666667,5.0
70698,1021,2020-04-01 22:45:40,EN,67,Female,"College degree, bachelor, master",Up to 12 years of school,Retired,United States,no,Arizona,Married/cohabiting,0.0,No,Isolated,1.0,0.0,Program A,,No,1.0,2.0,2.0,5.0,4.0,1.0,2.0,5.0,1.0,1.0,1.0,1.0,3.0,8.0,8.0,6.0,8.0,8.0,8.0,10.0,5.0,5.0,5.0,5.0,6.0,6.0,1.0,6.0,5.0,5.0,1.0,6.0,1.0,3.0,3.0,3.0,6.0,6.0,3.0,3.0,4.0,3.0,2.0,5.0,5.0,4.0,1.0,5.0,1.0,99.0,99.0,1.0,5.0,5.0,1.0,1.0,99.0,6.0,5.0,3.0,5.0,4.0,1.0,2.0,1.0,1.0,2.0,1.0,4.0,2.0,5.0,2.0,,6.0,6.0,6.0,6.0,5.0,6.0,6.0,5.0,5.0,6.0,4.0,4.0,5.0,2.0,5.0,2.0,1.0,1.0,4.0,5.0,4.0,5.0,5.0,5.0,5.0,4.0,,4.0,5.0,1.0,2.0,1.0,2.0,,1.6,1.666667,3.333333,5.333333,3.333333,5.0,5.0,5.7
70709,718,2020-04-01 22:39:07,TR,28,Female,PhD/Doctorate,Up to 6 years of school,Student,United States,yes,Saint Louis,Married/cohabiting,2.0,No,Isolated,1.0,0.0,,,,4.0,3.0,3.0,3.0,3.0,3.0,4.0,3.0,4.0,3.0,2.0,4.0,5.0,7.0,8.0,4.0,7.0,6.0,8.0,8.0,3.0,6.0,6.0,6.0,6.0,6.0,3.0,6.0,6.0,6.0,6.0,3.0,6.0,2.0,2.0,3.0,6.0,6.0,1.0,6.0,6.0,6.0,1.0,6.0,6.0,4.0,4.0,5.0,2.0,6.0,99.0,6.0,6.0,6.0,3.0,6.0,99.0,6.0,2.0,6.0,6.0,6.0,6.0,6.0,2.0,4.0,6.0,6.0,2.0,1.0,6.0,6.0,,6.0,6.0,4.0,5.0,6.0,5.0,6.0,4.0,4.0,6.0,3.0,3.0,6.0,6.0,6.0,5.0,5.0,6.0,6.0,5.0,2.0,3.0,6.0,5.0,6.0,1.0,,2.0,1.0,6.0,6.0,6.0,1.0,,3.1,3.666667,2.666667,6.0,6.0,6.0,4.0,5.2
70720,712,2020-04-01 22:37:17,EN,29,Female,"College degree, bachelor, master",Up to 9 years of school,Not employed,United States,yes,Kansas,Married/cohabiting,0.0,Yes,Life carries on with minor changes,1.0,0.0,,Program D,Yes,2.0,3.0,4.0,3.0,3.0,3.0,4.0,4.0,3.0,3.0,1.0,1.0,3.0,1.0,5.0,4.0,4.0,4.0,8.0,9.0,5.0,4.0,4.0,3.0,5.0,3.0,3.0,5.0,5.0,5.0,2.0,1.0,4.0,4.0,2.0,5.0,5.0,6.0,3.0,3.0,3.0,2.0,1.0,3.0,6.0,4.0,6.0,6.0,99.0,99.0,99.0,5.0,4.0,5.0,2.0,1.0,99.0,6.0,6.0,4.0,3.0,6.0,99.0,5.0,4.0,3.0,4.0,6.0,3.0,2.0,3.0,6.0,,6.0,4.0,4.0,6.0,6.0,6.0,6.0,6.0,6.0,6.0,5.0,2.0,6.0,1.0,5.0,6.0,2.0,1.0,6.0,3.0,5.0,4.0,1.0,6.0,4.0,5.0,,4.0,5.0,4.0,2.0,5.0,2.0,,2.8,1.666667,2.666667,5.0,2.666667,5.0,3.666667,5.6
70726,803,2020-04-01 22:37:58,S-CO,25,Male,"College degree, bachelor, master",College degree,Student,United States,yes,New York,Single,0.0,Yes,Isolated,0.0,0.0,,Program C,No,3.0,2.0,4.0,3.0,3.0,3.0,4.0,3.0,3.0,2.0,5.0,3.0,4.0,5.0,7.0,2.0,5.0,4.0,5.0,8.0,5.0,6.0,6.0,5.0,5.0,5.0,5.0,4.0,4.0,6.0,1.0,3.0,6.0,3.0,2.0,5.0,3.0,4.0,5.0,5.0,5.0,4.0,1.0,4.0,6.0,4.0,2.0,4.0,6.0,5.0,1.0,6.0,6.0,6.0,1.0,5.0,1.0,5.0,4.0,6.0,6.0,6.0,4.0,4.0,2.0,4.0,5.0,4.0,5.0,4.0,6.0,2.0,,6.0,5.0,5.0,4.0,5.0,5.0,6.0,6.0,5.0,6.0,5.0,4.0,6.0,4.0,6.0,6.0,6.0,4.0,6.0,4.0,4.0,5.0,5.0,6.0,4.0,4.0,,3.0,4.0,4.0,3.0,4.0,4.0,,2.8,4.0,2.333333,3.0,4.666667,5.333333,4.333333,5.3
70734,8847,2020-04-02 00:50:21,EN,34,Female,"College degree, bachelor, master",College degree,Self-employed,United States,yes,minnesota,Single,0.0,Yes,Isolated,2.0,0.0,Program A,,No,4.0,4.0,3.0,2.0,2.0,4.0,3.0,1.0,3.0,3.0,4.0,3.0,3.0,6.0,8.0,2.0,0.0,4.0,4.0,5.0,1.0,6.0,6.0,6.0,6.0,6.0,0.0,4.0,4.0,5.0,3.0,3.0,5.0,6.0,6.0,4.0,4.0,4.0,2.0,4.0,5.0,4.0,5.0,4.0,4.0,2.0,4.0,4.0,5.0,99.0,99.0,5.0,5.0,4.0,1.0,5.0,99.0,1.0,3.0,6.0,6.0,5.0,99.0,99.0,6.0,4.0,4.0,5.0,3.0,3.0,3.0,99.0,,5.0,4.0,5.0,5.0,5.0,5.0,4.0,4.0,5.0,5.0,4.0,5.0,6.0,4.0,2.0,3.0,6.0,6.0,5.0,4.0,3.0,4.0,2.0,5.0,1.0,2.0,,4.0,5.0,4.0,5.0,5.0,5.0,,3.7,3.333333,5.0,4.333333,4.333333,3.333333,3.0,4.7
70755,49733,2020-04-02 12:06:29,EN,29,Male,"College degree, bachelor, master",College degree,Part time employed,United States,no,wisconsin,Married/cohabiting,0.0,No,Isolated,1.0,0.0,Program A,,Yes,2.0,4.0,3.0,5.0,5.0,2.0,4.0,4.0,5.0,2.0,5.0,4.0,5.0,6.0,7.0,1.0,2.0,7.0,,9.0,,4.0,6.0,5.0,6.0,6.0,0.0,6.0,5.0,5.0,1.0,2.0,1.0,2.0,1.0,5.0,3.0,4.0,4.0,6.0,6.0,6.0,4.0,5.0,5.0,4.0,4.0,5.0,6.0,5.0,1.0,6.0,5.0,4.0,99.0,2.0,99.0,3.0,3.0,5.0,5.0,3.0,5.0,2.0,5.0,5.0,6.0,5.0,1.0,1.0,5.0,1.0,,6.0,6.0,2.0,4.0,2.0,6.0,5.0,2.0,6.0,6.0,2.0,5.0,5.0,4.0,1.0,6.0,5.0,3.0,5.0,3.0,5.0,3.0,1.0,5.0,1.0,5.0,,1.0,5.0,6.0,4.0,5.0,1.0,Boomer generation blatantly not following self isolation practices.,2.4,4.666667,1.666667,3.333333,6.0,4.333333,4.0,4.5
70765,257,2020-04-02 22:20:37,FR,36,Female,PhD/Doctorate,College degree,Full time employed,United States,yes,Californie,Married/cohabiting,0.0,No,Life carries on with minor changes,1.0,0.0,,,,,,,,,,,,,,,,,,,,,,,,,,,,,,,,,,,,,,,,,,,,,,,,,,,,,,,,,,,,,,,,,,,,,,,,,,,,,,,,,,,,,,,,,,,,,,,,,,,,,,,,,,,,,,,,,,,,,,
70780,824,2020-04-01 22:27:34,EN,31,Male,"College degree, bachelor, master",Up to 9 years of school,Student,United States,yes,MI,Single,0.0,Yes,Isolated,0.0,0.0,Program A,,Yes,1.0,2.0,2.0,5.0,3.0,1.0,4.0,4.0,5.0,1.0,3.0,1.0,4.0,1.0,6.0,,1.0,2.0,1.0,6.0,0.0,2.0,2.0,2.0,1.0,4.0,0.0,5.0,5.0,3.0,3.0,1.0,1.0,2.0,2.0,6.0,4.0,5.0,6.0,6.0,4.0,5.0,5.0,3.0,2.0,6.0,2.0,5.0,1.0,5.0,1.0,4.0,3.0,4.0,1.0,2.0,1.0,5.0,2.0,2.0,1.0,5.0,1.0,2.0,2.0,2.0,2.0,3.0,1.0,2.0,5.0,6.0,,6.0,6.0,6.0,6.0,6.0,6.0,6.0,6.0,6.0,6.0,1.0,3.0,4.0,1.0,1.0,1.0,4.0,6.0,6.0,3.0,2.0,1.0,5.0,3.0,1.0,1.0,,1.0,1.0,4.0,5.0,3.0,1.0,,2.0,2.666667,1.666667,3.333333,5.0,2.333333,5.333333,6.0
70782,962,2020-04-01 22:29:50,EN,32,Female,"College degree, bachelor, master",Up to 6 years of school,Student,United States,no,Oregon,Married/cohabiting,1.0,Yes,Life carries on with minor changes,2.0,1.0,,Program C,Yes,3.0,3.0,3.0,4.0,3.0,3.0,4.0,4.0,1.0,2.0,1.0,1.0,3.0,5.0,9.0,5.0,5.0,5.0,3.0,6.0,1.0,4.0,5.0,5.0,6.0,6.0,0.0,6.0,5.0,5.0,1.0,2.0,1.0,3.0,4.0,5.0,6.0,5.0,4.0,5.0,6.0,5.0,2.0,5.0,6.0,4.0,3.0,6.0,1.0,1.0,4.0,1.0,2.0,4.0,1.0,1.0,4.0,4.0,1.0,4.0,4.0,1.0,5.0,1.0,1.0,1.0,1.0,1.0,1.0,1.0,4.0,2.0,,6.0,6.0,6.0,6.0,6.0,6.0,6.0,6.0,5.0,6.0,2.0,6.0,6.0,5.0,5.0,2.0,4.0,6.0,2.0,2.0,1.0,4.0,5.0,4.0,1.0,2.0,,5.0,5.0,5.0,1.0,1.0,1.0,One thing the I am concerned about this time is how it will affect my only child. They are 5 and hes made more statements about feeling alone since we are required to stay at home.,2.4,1.666667,3.0,4.666667,5.333333,5.333333,4.666667,5.9
70809,958,2020-04-01 22:24:26,LT,29,Female,"College degree, bachelor, master",College degree,Full time employed,United States,yes,Utah,Married/cohabiting,0.0,Not sure,Life carries on with minor changes,1.0,0.0,Program A,,No,3.0,4.0,4.0,3.0,1.0,3.0,4.0,2.0,4.0,2.0,4.0,2.0,4.0,6.0,8.0,3.0,4.0,4.0,7.0,4.0,2.0,6.0,6.0,6.0,6.0,6.0,0.0,4.0,5.0,5.0,5.0,2.0,4.0,5.0,4.0,3.0,5.0,5.0,4.0,3.0,5.0,2.0,4.0,4.0,4.0,5.0,4.0,5.0,4.0,6.0,99.0,5.0,5.0,5.0,99.0,3.0,99.0,6.0,5.0,6.0,6.0,6.0,6.0,5.0,5.0,4.0,6.0,6.0,6.0,4.0,6.0,6.0,Atsauktomis vestuvemes geguzes menesi planuotomis virs metu,5.0,4.0,5.0,5.0,5.0,5.0,6.0,6.0,5.0,6.0,1.0,2.0,4.0,4.0,4.0,4.0,1.0,1.0,4.0,3.0,2.0,1.0,4.0,2.0,1.0,2.0,,2.0,3.0,3.0,4.0,4.0,4.0,,3.4,3.333333,4.333333,4.333333,3.333333,3.666667,4.333333,5.2
70863,400,2020-04-02 22:03:31,S-CO,26,Male,"College degree, bachelor, master",College degree,Full time employed,United States,yes,,Single,0.0,No,Life carries on with minor changes,1.0,0.0,Program B,,Not sure,4.0,2.0,3.0,2.0,4.0,3.0,5.0,2.0,2.0,2.0,3.0,2.0,1.0,8.0,8.0,5.0,5.0,5.0,5.0,7.0,7.0,2.0,2.0,2.0,2.0,2.0,7.0,,,,,,,,,,,,,,,,,,,,,,,,,,,,,,,,,,,,,,,,,,,,,,,,,,,,,,,,,,,,,,,,,,,,,,,,,,,,,,,,,2.7,2.0,,,,,,
70881,759,2020-04-01 22:06:06,EN,41,Female,"Some College, short continuing education or equivalent",Some College or equivalent,Full time employed,United States,no,Iowa,Married/cohabiting,2.0,Not sure,Isolated,1.0,1.0,Program B,,No,3.0,4.0,5.0,3.0,3.0,4.0,3.0,2.0,4.0,4.0,3.0,1.0,4.0,3.0,6.0,0.0,8.0,5.0,5.0,5.0,2.0,6.0,6.0,6.0,6.0,6.0,4.0,5.0,6.0,6.0,2.0,4.0,2.0,6.0,6.0,2.0,4.0,3.0,3.0,3.0,5.0,2.0,3.0,4.0,4.0,3.0,5.0,4.0,99.0,99.0,5.0,2.0,5.0,5.0,99.0,1.0,2.0,4.0,6.0,6.0,6.0,6.0,99.0,99.0,99.0,4.0,2.0,4.0,6.0,4.0,6.0,99.0,,6.0,6.0,4.0,6.0,6.0,5.0,6.0,6.0,6.0,6.0,3.0,3.0,6.0,2.0,5.0,6.0,5.0,6.0,6.0,5.0,3.0,2.0,2.0,6.0,4.0,3.0,,2.0,1.0,1.0,4.0,2.0,5.0,,3.7,2.666667,5.666667,3.666667,3.333333,4.0,3.0,5.7
70931,1002,2020-04-01 22:00:10,EN,58,Female,PhD/Doctorate,Some College or equivalent,Full time employed,United States,no,New York,Married/cohabiting,1.0,Yes,Isolated,2.0,0.0,Program A,,No,3.0,2.0,3.0,4.0,4.0,2.0,4.0,3.0,3.0,2.0,2.0,1.0,2.0,5.0,7.0,4.0,7.0,7.0,7.0,8.0,7.0,5.0,6.0,5.0,5.0,5.0,3.0,5.0,5.0,5.0,2.0,3.0,2.0,4.0,2.0,6.0,4.0,4.0,3.0,5.0,5.0,5.0,2.0,6.0,6.0,5.0,2.0,5.0,3.0,4.0,5.0,3.0,5.0,2.0,99.0,4.0,99.0,4.0,5.0,5.0,6.0,6.0,1.0,2.0,2.0,2.0,1.0,2.0,3.0,4.0,4.0,2.0,,6.0,4.0,5.0,5.0,5.0,5.0,6.0,6.0,5.0,6.0,5.0,5.0,5.0,4.0,4.0,5.0,1.0,2.0,5.0,4.0,4.0,4.0,4.0,4.0,5.0,5.0,,5.0,5.0,4.0,6.0,5.0,3.0,,2.4,1.666667,2.333333,4.0,5.0,5.666667,5.0,5.3
70934,275,2020-04-02 21:47:58,EN,36,Male,"College degree, bachelor, master",College degree,Full time employed,United States,no,Washington,Single,0.0,Yes,Isolated,0.0,0.0,,,,4.0,4.0,5.0,4.0,2.0,3.0,3.0,2.0,4.0,4.0,4.0,4.0,3.0,,,,,,,,,,,,,,,,,,,,,,,,,,,,,,,,,,,,,,,,,,,,,,,,,,,,,,,,,,,,,,,,,,,,,,,,,,,,,,,,,,,,,,,,,,,,,,,3.7,3.666667,,,,,,
70935,286,2020-04-02 21:47:57,EN,25,Female,"College degree, bachelor, master",Some College or equivalent,Student,United States,no,Minnesota,Single,0.0,No,Life carries on with minor changes,2.0,0.0,,Program D,No,3.0,2.0,2.0,4.0,3.0,1.0,3.0,4.0,4.0,1.0,4.0,2.0,2.0,,,,,,,,,,,,,,,,,,,,,,,,,,,,,,,,,,,,,,,,,,,,,,,,,,,,,,,,,,,,,,,,,,,,,,,,,,,,,,,,,,,,,,,,,,,,,,,2.3,2.666667,,,,,,
70959,554,2020-04-01 21:48:02,EN,22,Other/would rather not say,"College degree, bachelor, master",Some College or equivalent,Full time employed,United States,no,Florida,Single,0.0,No,Life carries on with minor changes,0.0,0.0,Program A,,No,4.0,5.0,5.0,1.0,3.0,5.0,5.0,2.0,4.0,3.0,5.0,5.0,5.0,3.0,7.0,3.0,3.0,3.0,1.0,6.0,4.0,1.0,1.0,6.0,1.0,5.0,5.0,6.0,6.0,6.0,6.0,4.0,4.0,6.0,6.0,4.0,4.0,3.0,3.0,6.0,6.0,6.0,4.0,6.0,6.0,6.0,3.0,5.0,1.0,6.0,99.0,99.0,2.0,6.0,1.0,99.0,99.0,1.0,1.0,2.0,1.0,5.0,4.0,1.0,1.0,6.0,6.0,99.0,4.0,1.0,6.0,1.0,,6.0,6.0,5.0,6.0,6.0,5.0,6.0,6.0,5.0,6.0,1.0,5.0,1.0,3.0,1.0,3.0,6.0,6.0,5.0,2.0,1.0,2.0,1.0,3.0,1.0,1.0,,1.0,3.0,4.0,6.0,5.0,2.0,,3.9,5.0,5.0,3.666667,6.0,5.0,5.0,5.7
70973,1911,2020-04-01 22:08:26,EN,71,Female,"Some College, short continuing education or equivalent",Up to 9 years of school,Retired,United States,no,Oregon,Married/cohabiting,0.0,Yes,Isolated,0.0,0.0,,,,3.0,3.0,3.0,4.0,3.0,1.0,4.0,4.0,5.0,3.0,3.0,4.0,4.0,8.0,10.0,7.0,8.0,8.0,5.0,7.0,2.0,4.0,6.0,5.0,6.0,6.0,2.0,6.0,5.0,5.0,3.0,4.0,2.0,5.0,2.0,5.0,6.0,5.0,2.0,4.0,6.0,5.0,2.0,6.0,5.0,4.0,3.0,5.0,99.0,4.0,,99.0,4.0,6.0,99.0,4.0,99.0,6.0,99.0,5.0,5.0,5.0,4.0,3.0,1.0,6.0,5.0,99.0,6.0,2.0,5.0,6.0,,6.0,4.0,4.0,6.0,6.0,5.0,4.0,6.0,4.0,6.0,4.0,6.0,5.0,,4.0,5.0,1.0,1.0,4.0,5.0,4.0,4.0,3.0,5.0,4.0,4.0,,6.0,4.0,5.0,4.0,6.0,4.0,,2.7,3.666667,3.0,5.333333,5.0,5.333333,4.333333,5.1
70997,1286,2020-04-01 21:53:48,EN,49,Male,"College degree, bachelor, master",Some College or equivalent,Full time employed,United States,no,Arizona,Married/cohabiting,0.0,Yes,Life carries on with minor changes,2.0,0.0,,Program D,No,2.0,2.0,2.0,5.0,,1.0,4.0,5.0,2.0,1.0,2.0,2.0,3.0,6.0,10.0,3.0,6.0,8.0,7.0,8.0,3.0,6.0,5.0,5.0,6.0,5.0,0.0,5.0,5.0,5.0,2.0,2.0,3.0,2.0,2.0,5.0,5.0,5.0,3.0,5.0,4.0,4.0,4.0,2.0,5.0,5.0,3.0,4.0,4.0,3.0,99.0,2.0,3.0,4.0,99.0,3.0,99.0,5.0,5.0,4.0,4.0,4.0,99.0,3.0,2.0,4.0,3.0,4.0,2.0,2.0,4.0,99.0,,5.0,5.0,5.0,5.0,5.0,3.0,5.0,5.0,4.0,5.0,3.0,3.0,5.0,4.0,4.0,4.0,3.0,3.0,5.0,3.0,2.0,2.0,3.0,3.0,1.0,3.0,,4.0,4.0,4.0,3.0,4.0,2.0,,1.555556,2.333333,2.0,4.666667,4.333333,3.333333,4.333333,4.7
71020,2336,2020-04-01 22:08:25,SME,25,Female,"College degree, bachelor, master",College degree,Full time employed,United States,no,Arizona,Single,0.0,Yes,Isolated,4.0,2.0,,Program C,No,4.0,3.0,3.0,3.0,3.0,2.0,5.0,2.0,3.0,2.0,1.0,2.0,2.0,4.0,9.0,4.0,3.0,4.0,4.0,4.0,6.0,6.0,6.0,6.0,5.0,5.0,4.0,5.0,5.0,6.0,2.0,2.0,5.0,5.0,5.0,4.0,4.0,2.0,4.0,4.0,5.0,5.0,2.0,5.0,5.0,4.0,5.0,4.0,1.0,5.0,99.0,3.0,5.0,3.0,1.0,6.0,5.0,6.0,4.0,6.0,6.0,6.0,2.0,2.0,3.0,2.0,3.0,5.0,4.0,4.0,4.0,5.0,"Qué el virus tenga una mutación más que afecte mascotas (gato), o que las personas abandonen a sus mascotas por temor a que suceda algo así",5.0,5.0,5.0,5.0,5.0,5.0,5.0,5.0,5.0,4.0,3.0,4.0,4.0,3.0,2.0,3.0,6.0,6.0,5.0,4.0,4.0,3.0,5.0,5.0,1.0,3.0,"Mi gato, como es un animal de rutina atenderlo reduce mi ansiedad",3.0,5.0,4.0,2.0,4.0,4.0,"Vídeos de conspiraciones o información falsa sobre COVID-19 propagada en las redes sociales: Considero que estos han influido en la percepción de riesgo de las personas, quiénes buscan cualquier tipo de afirmación para negar que estamos enfrentando un problema real que requiere que toda la población se apegue al protocolo.  He notado que una gran cantidad de personas prefieren escuchar la opinión subjetiva de alguien que suena como ellos o comparte creencias similares, en vez de tomar en cuenta datos cientificos/estadisticos. Esto me preocupa pues esta fuera de nuestro control.",2.8,1.666667,4.333333,3.0,4.666667,5.0,3.333333,4.9
71056,1052,2020-04-01 21:38:59,EN,52,Female,"College degree, bachelor, master",PhD/Doctorate,Full time employed,United States,no,Minnesota,Married/cohabiting,0.0,Yes,Life carries on with minor changes,1.0,0.0,,Program C,No,2.0,3.0,3.0,5.0,3.0,3.0,5.0,4.0,3.0,3.0,2.0,2.0,2.0,4.0,8.0,4.0,3.0,7.0,5.0,8.0,2.0,5.0,6.0,6.0,6.0,6.0,0.0,5.0,5.0,5.0,4.0,4.0,3.0,3.0,1.0,6.0,2.0,3.0,5.0,5.0,5.0,4.0,4.0,5.0,5.0,2.0,2.0,6.0,2.0,1.0,99.0,2.0,2.0,3.0,2.0,1.0,99.0,6.0,2.0,6.0,6.0,6.0,2.0,2.0,2.0,2.0,3.0,2.0,2.0,3.0,5.0,2.0,The Federal govt handling of the situation,6.0,5.0,,6.0,5.0,6.0,5.0,6.0,6.0,6.0,3.0,2.0,5.0,2.0,6.0,3.0,1.0,1.0,5.0,3.0,3.0,4.0,6.0,5.0,1.0,1.0,,5.0,4.0,4.0,2.0,5.0,3.0,,2.4,2.0,1.666667,2.333333,4.666667,4.333333,4.333333,5.666667
71059,1358,2020-04-01 21:43:54,EN,51,Female,"College degree, bachelor, master",Up to 12 years of school,Full time employed,United States,no,Pennsylvania,Married/cohabiting,0.0,Yes,Life carries on with minor changes,1.0,0.0,,Program D,Yes,4.0,5.0,4.0,3.0,2.0,1.0,4.0,4.0,,3.0,5.0,5.0,5.0,5.0,9.0,0.0,0.0,0.0,5.0,5.0,0.0,6.0,6.0,6.0,6.0,5.0,0.0,5.0,6.0,6.0,1.0,1.0,1.0,4.0,2.0,5.0,6.0,6.0,1.0,6.0,6.0,4.0,5.0,5.0,5.0,4.0,4.0,5.0,6.0,2.0,99.0,99.0,4.0,6.0,1.0,6.0,99.0,3.0,6.0,4.0,4.0,6.0,99.0,6.0,2.0,5.0,5.0,4.0,2.0,2.0,6.0,6.0,,5.0,4.0,6.0,5.0,4.0,5.0,5.0,5.0,5.0,5.0,1.0,1.0,5.0,5.0,5.0,6.0,1.0,1.0,6.0,5.0,1.0,1.0,6.0,2.0,2.0,1.0,,1.0,6.0,4.0,4.0,6.0,3.0,Trump is a threat to this country.,3.111111,5.0,2.666667,6.0,5.333333,4.0,4.0,4.9
71061,1035,2020-04-01 21:38:30,SME,26,Female,"College degree, bachelor, master",Up to 9 years of school,Part time employed,United States,yes,California,Married/cohabiting,0.0,Yes,Life carries on with minor changes,3.0,0.0,Program A,,No,3.0,3.0,3.0,3.0,4.0,3.0,2.0,2.0,3.0,2.0,3.0,3.0,4.0,6.0,8.0,5.0,5.0,4.0,5.0,8.0,5.0,5.0,5.0,4.0,4.0,4.0,5.0,5.0,5.0,6.0,5.0,2.0,3.0,4.0,4.0,4.0,3.0,3.0,6.0,5.0,5.0,5.0,4.0,4.0,4.0,5.0,3.0,5.0,5.0,5.0,99.0,6.0,4.0,4.0,1.0,5.0,99.0,6.0,5.0,5.0,6.0,6.0,5.0,5.0,5.0,5.0,4.0,4.0,5.0,4.0,5.0,6.0,,5.0,6.0,5.0,4.0,6.0,6.0,5.0,6.0,6.0,5.0,4.0,5.0,6.0,4.0,5.0,3.0,2.0,2.0,3.0,4.0,4.0,4.0,3.0,6.0,4.0,4.0,,5.0,4.0,5.0,5.0,4.0,3.0,,3.0,3.333333,3.666667,2.333333,5.0,3.666667,4.666667,5.4
71063,1737,2020-04-01 21:49:56,SME,28,Female,"Some College, short continuing education or equivalent",Up to 12 years of school,Not employed,United States,yes,Texas,Married/cohabiting,2.0,Yes,Isolated,1.0,2.0,Program A,,No,3.0,2.0,3.0,4.0,4.0,2.0,4.0,3.0,3.0,2.0,1.0,2.0,2.0,5.0,7.0,8.0,8.0,7.0,7.0,6.0,6.0,5.0,5.0,5.0,5.0,5.0,5.0,3.0,5.0,5.0,2.0,3.0,2.0,5.0,5.0,4.0,5.0,3.0,5.0,4.0,5.0,4.0,1.0,3.0,5.0,5.0,3.0,5.0,5.0,5.0,6.0,6.0,5.0,4.0,2.0,5.0,6.0,5.0,5.0,6.0,6.0,5.0,5.0,5.0,6.0,5.0,6.0,4.0,6.0,6.0,6.0,4.0,,5.0,5.0,5.0,5.0,5.0,4.0,5.0,5.0,5.0,5.0,2.0,1.0,3.0,1.0,3.0,3.0,3.0,3.0,5.0,4.0,4.0,3.0,4.0,5.0,5.0,5.0,,5.0,5.0,5.0,4.0,5.0,4.0,"La falta de insumos para atender este tipo de contingencias sanitarias, el egoísmo de todas las personas que se mal informan y no toman nada enserio, la incapacidad de saber si esto terminará pronto o cuanto más se tendrá que esperar.",2.4,1.666667,4.333333,3.333333,4.333333,4.666667,4.666667,4.9
71064,1677,2020-04-01 21:48:51,TR,30,Female,PhD/Doctorate,Up to 12 years of school,Student,United States,yes,Austin,Married/cohabiting,1.0,Yes,Isolated,1.0,0.0,Program B,,,3.0,3.0,4.0,3.0,4.0,3.0,3.0,4.0,3.0,3.0,1.0,1.0,1.0,6.0,8.0,2.0,4.0,4.0,5.0,4.0,4.0,4.0,6.0,5.0,5.0,5.0,3.0,5.0,5.0,6.0,2.0,3.0,2.0,6.0,2.0,5.0,6.0,4.0,4.0,6.0,4.0,4.0,2.0,5.0,5.0,6.0,4.0,5.0,2.0,3.0,99.0,2.0,4.0,3.0,2.0,2.0,2.0,5.0,2.0,6.0,99.0,6.0,4.0,4.0,2.0,1.0,4.0,2.0,3.0,1.0,4.0,2.0,,6.0,6.0,6.0,6.0,6.0,6.0,6.0,6.0,5.0,6.0,3.0,6.0,6.0,6.0,6.0,2.0,5.0,5.0,6.0,4.0,3.0,4.0,5.0,5.0,5.0,5.0,,2.0,2.0,5.0,4.0,5.0,2.0,,2.9,1.0,3.333333,4.333333,4.666667,5.0,4.666667,5.9
71065,826,2020-04-01 21:34:38,EN,26,Female,"College degree, bachelor, master",College degree,Full time employed,United States,no,Minnesota,Married/cohabiting,0.0,Yes,Isolated,1.0,0.0,,Program C,No,4.0,3.0,4.0,4.0,3.0,2.0,3.0,3.0,2.0,3.0,2.0,2.0,2.0,7.0,9.0,3.0,,9.0,4.0,10.0,1.0,5.0,5.0,,6.0,6.0,,6.0,5.0,3.0,4.0,4.0,4.0,6.0,6.0,5.0,4.0,3.0,6.0,5.0,6.0,5.0,2.0,6.0,6.0,5.0,6.0,5.0,1.0,4.0,99.0,99.0,2.0,5.0,1.0,1.0,99.0,6.0,6.0,6.0,5.0,5.0,99.0,5.0,1.0,2.0,6.0,5.0,1.0,1.0,6.0,1.0,,6.0,6.0,6.0,6.0,6.0,6.0,6.0,6.0,6.0,6.0,4.0,6.0,4.0,1.0,6.0,2.0,6.0,2.0,6.0,3.0,6.0,4.0,3.0,6.0,1.0,6.0,,5.0,5.0,3.0,6.0,4.0,4.0,,2.9,2.0,4.666667,2.666667,5.333333,5.666667,3.666667,6.0
71073,795,2020-04-01 21:33:17,EN,37,Male,"College degree, bachelor, master",College degree,Full time employed,United States,no,Colorado,Married/cohabiting,2.0,No,Life carries on with minor changes,1.0,2.0,Program A,,No,1.0,2.0,5.0,4.0,2.0,2.0,4.0,1.0,2.0,3.0,3.0,3.0,2.0,3.0,6.0,2.0,4.0,3.0,1.0,1.0,3.0,3.0,4.0,4.0,4.0,4.0,3.0,5.0,4.0,5.0,2.0,1.0,2.0,5.0,4.0,4.0,5.0,4.0,4.0,6.0,5.0,6.0,1.0,5.0,5.0,4.0,2.0,5.0,2.0,4.0,5.0,2.0,5.0,3.0,2.0,2.0,5.0,3.0,5.0,2.0,2.0,5.0,2.0,1.0,2.0,3.0,2.0,2.0,2.0,2.0,4.0,2.0,,4.0,1.0,2.0,4.0,5.0,5.0,2.0,5.0,2.0,4.0,4.0,3.0,2.0,2.0,1.0,2.0,6.0,4.0,1.0,2.0,1.0,2.0,6.0,2.0,1.0,2.0,,2.0,2.0,2.0,4.0,2.0,5.0,,2.8,2.666667,4.0,4.0,5.666667,5.333333,4.666667,3.4
71101,732,2020-04-01 21:29:10,EN,40,Female,"College degree, bachelor, master",Up to 12 years of school,Full time employed,United States,no,Pennsylvania,Married/cohabiting,2.0,No,Isolated,1.0,2.0,Program A,,No,2.0,3.0,3.0,4.0,3.0,2.0,3.0,3.0,3.0,3.0,2.0,3.0,3.0,4.0,8.0,3.0,7.0,3.0,6.0,7.0,5.0,4.0,5.0,5.0,5.0,5.0,3.0,5.0,5.0,5.0,4.0,4.0,4.0,3.0,4.0,5.0,5.0,4.0,3.0,4.0,4.0,4.0,3.0,4.0,5.0,5.0,3.0,5.0,4.0,5.0,6.0,4.0,4.0,6.0,2.0,3.0,3.0,6.0,4.0,5.0,6.0,4.0,3.0,3.0,4.0,5.0,5.0,3.0,5.0,4.0,6.0,2.0,,5.0,5.0,5.0,5.0,5.0,5.0,5.0,5.0,5.0,4.0,3.0,5.0,4.0,3.0,5.0,4.0,1.0,1.0,5.0,5.0,4.0,4.0,4.0,4.0,1.0,3.0,,4.0,4.0,5.0,4.0,5.0,3.0,,2.7,2.666667,3.0,4.333333,4.0,4.333333,4.666667,4.9
71128,4144,2020-04-01 22:22:10,EN,36,Other/would rather not say,"College degree, bachelor, master",Some College or equivalent,Not employed,United States,no,MN,Married/cohabiting,1.0,Yes,Isolated,2.0,1.0,,Program C,Not sure,4.0,5.0,5.0,2.0,1.0,5.0,3.0,2.0,3.0,5.0,2.0,2.0,3.0,3.0,8.0,3.0,2.0,4.0,5.0,7.0,1.0,4.0,6.0,5.0,5.0,5.0,0.0,6.0,5.0,5.0,1.0,3.0,2.0,6.0,5.0,3.0,6.0,5.0,3.0,6.0,6.0,5.0,3.0,4.0,5.0,4.0,4.0,4.0,6.0,99.0,6.0,99.0,5.0,4.0,99.0,4.0,4.0,4.0,5.0,6.0,6.0,6.0,99.0,4.0,4.0,4.0,2.0,4.0,2.0,2.0,6.0,99.0,Being a disabled person unable to access other necessary health services,5.0,5.0,5.0,5.0,5.0,5.0,5.0,5.0,5.0,5.0,2.0,2.0,5.0,1.0,4.0,3.0,5.0,5.0,4.0,4.0,3.0,4.0,2.0,4.0,1.0,4.0,,4.0,4.0,4.0,5.0,5.0,3.0,,4.3,2.333333,5.0,5.0,5.666667,4.333333,3.666667,5.0
71130,557,2020-04-01 21:22:02,ZH-T,35,Female,PhD/Doctorate,College degree,Full time employed,United States,no,Ohio,Married/cohabiting,0.0,Not sure,Isolated,2.0,0.0,Program B,,Not sure,2.0,2.0,2.0,4.0,2.0,2.0,3.0,4.0,2.0,2.0,2.0,2.0,2.0,6.0,9.0,0.0,4.0,6.0,5.0,,2.0,3.0,3.0,3.0,5.0,5.0,0.0,6.0,5.0,6.0,1.0,3.0,4.0,4.0,4.0,4.0,3.0,4.0,4.0,4.0,4.0,3.0,3.0,5.0,4.0,5.0,4.0,5.0,99.0,5.0,99.0,99.0,5.0,1.0,99.0,3.0,99.0,5.0,5.0,5.0,5.0,5.0,2.0,5.0,2.0,3.0,2.0,2.0,2.0,4.0,,5.0,,4.0,4.0,4.0,4.0,4.0,4.0,4.0,4.0,4.0,4.0,,4.0,4.0,4.0,4.0,4.0,4.0,1.0,4.0,,4.0,4.0,4.0,5.0,1.0,3.0,,5.0,4.0,5.0,4.0,4.0,4.0,,2.3,2.0,3.666667,3.333333,3.666667,4.333333,4.333333,4.0
71148,665,2020-04-01 21:21:49,EN,50,Female,"College degree, bachelor, master",College degree,Full time employed,United States,no,Massachusetts,Married/cohabiting,1.0,Yes,Isolated,1.0,0.0,Program B,,No,5.0,4.0,5.0,1.0,2.0,5.0,5.0,3.0,5.0,5.0,5.0,4.0,5.0,5.0,7.0,4.0,4.0,5.0,3.0,8.0,2.0,6.0,6.0,6.0,5.0,6.0,1.0,6.0,6.0,6.0,2.0,4.0,5.0,5.0,5.0,5.0,4.0,2.0,5.0,2.0,6.0,3.0,2.0,4.0,5.0,4.0,4.0,5.0,4.0,3.0,6.0,99.0,3.0,5.0,2.0,6.0,2.0,5.0,4.0,6.0,5.0,6.0,99.0,5.0,6.0,4.0,5.0,5.0,2.0,3.0,5.0,3.0,,1.0,4.0,1.0,1.0,1.0,1.0,1.0,1.0,6.0,1.0,1.0,3.0,2.0,4.0,5.0,5.0,3.0,3.0,4.0,1.0,4.0,2.0,5.0,4.0,1.0,1.0,,1.0,2.0,4.0,2.0,2.0,5.0,,4.2,4.666667,4.0,2.666667,3.666667,4.666667,4.0,1.8
71162,1023,2020-04-01 21:25:14,EN,43,Male,"College degree, bachelor, master",Some College or equivalent,Student,United States,no,Massachusetts,Married/cohabiting,1.0,Yes,Isolated,4.0,3.0,,Program D,No,3.0,5.0,4.0,2.0,3.0,5.0,2.0,2.0,3.0,4.0,5.0,5.0,5.0,10.0,10.0,8.0,8.0,9.0,9.0,9.0,8.0,3.0,4.0,4.0,4.0,4.0,5.0,6.0,5.0,5.0,6.0,5.0,5.0,3.0,4.0,4.0,2.0,5.0,1.0,6.0,5.0,6.0,4.0,6.0,4.0,1.0,3.0,3.0,5.0,6.0,4.0,2.0,3.0,5.0,1.0,6.0,5.0,4.0,4.0,4.0,4.0,4.0,5.0,4.0,4.0,6.0,6.0,3.0,3.0,5.0,6.0,1.0,"Potential of infecting others, especially strangers, either directly or indirectly is very distressing.",5.0,4.0,4.0,4.0,4.0,5.0,4.0,4.0,5.0,5.0,4.0,5.0,4.0,2.0,5.0,4.0,1.0,1.0,4.0,4.0,3.0,4.0,3.0,3.0,1.0,4.0,,4.0,6.0,5.0,6.0,6.0,4.0,,3.9,5.0,3.333333,4.333333,5.666667,4.333333,2.666667,4.4
71165,180,2020-04-02 21:11:11,EN,44,Female,"College degree, bachelor, master",Up to 12 years of school,Not employed,United States,no,,Married/cohabiting,3.0,Yes,Isolated,3.0,0.0,,,,,,,,,,,,,,,,,,,,,,,,,,,,,,,,,,,,,,,,,,,,,,,,,,,,,,,,,,,,,,,,,,,,,,,,,,,,,,,,,,,,,,,,,,,,,,,,,,,,,,,,,,,,,,,,,,,,,,
71174,1671,2020-04-01 21:35:14,BG,67,Female,"College degree, bachelor, master",Up to 9 years of school,Student,United States,yes,Kansas city MO,Married/cohabiting,2.0,Yes,Life carries on with minor changes,1.0,1.0,,Program D,No,3.0,3.0,4.0,4.0,3.0,2.0,5.0,3.0,3.0,3.0,2.0,1.0,3.0,9.0,8.0,7.0,9.0,9.0,5.0,5.0,6.0,5.0,6.0,6.0,6.0,6.0,4.0,5.0,6.0,5.0,3.0,2.0,5.0,5.0,5.0,4.0,5.0,5.0,5.0,5.0,5.0,2.0,2.0,6.0,5.0,6.0,1.0,6.0,5.0,4.0,5.0,4.0,5.0,3.0,1.0,99.0,4.0,6.0,4.0,6.0,6.0,6.0,4.0,5.0,1.0,2.0,5.0,5.0,6.0,3.0,5.0,6.0,,6.0,4.0,1.0,2.0,3.0,3.0,6.0,6.0,4.0,6.0,5.0,6.0,6.0,4.0,5.0,5.0,5.0,2.0,4.0,6.0,3.0,3.0,5.0,2.0,1.0,5.0,,6.0,6.0,6.0,6.0,6.0,5.0,,2.7,2.0,4.333333,4.0,4.0,5.333333,6.0,4.1
71194,1104,2020-04-01 21:22:48,EN,38,Female,"College degree, bachelor, master",Some College or equivalent,Not employed,United States,no,Oregon,Divorced/widowed,3.0,Yes,Isolated,1.0,3.0,Program A,,No,4.0,3.0,5.0,3.0,2.0,5.0,3.0,2.0,4.0,4.0,3.0,5.0,5.0,2.0,4.0,0.0,5.0,5.0,5.0,5.0,0.0,5.0,6.0,5.0,4.0,4.0,0.0,5.0,6.0,6.0,1.0,2.0,4.0,4.0,5.0,4.0,6.0,6.0,3.0,5.0,5.0,5.0,2.0,5.0,6.0,3.0,3.0,5.0,6.0,99.0,6.0,6.0,6.0,6.0,4.0,1.0,6.0,5.0,5.0,6.0,6.0,5.0,99.0,6.0,5.0,5.0,6.0,4.0,3.0,2.0,6.0,3.0,My doomsday cult upbringing causes things like this to extremely trigger my anxiety and PTSD.,4.0,6.0,4.0,6.0,6.0,6.0,6.0,6.0,5.0,6.0,4.0,4.0,4.0,4.0,4.0,4.0,4.0,4.0,4.0,4.0,4.0,4.0,3.0,4.0,4.0,5.0,"Crochet, sewing, cooking, baking, reading",5.0,4.0,2.0,4.0,4.0,1.0,Doomsday cult triggers,3.9,4.333333,4.0,5.333333,5.0,5.333333,4.0,5.5
71206,1138,2020-04-01 21:22:12,EN,30,Male,"College degree, bachelor, master",Some College or equivalent,Full time employed,United States,no,Minnesota,Married/cohabiting,0.0,No,Isolated,1.0,0.0,,Program C,No,4.0,3.0,4.0,4.0,3.0,2.0,3.0,3.0,4.0,2.0,3.0,2.0,3.0,4.0,8.0,3.0,2.0,5.0,8.0,9.0,2.0,2.0,5.0,4.0,5.0,5.0,1.0,5.0,4.0,5.0,4.0,2.0,4.0,5.0,4.0,5.0,5.0,5.0,3.0,5.0,5.0,5.0,4.0,5.0,5.0,4.0,4.0,5.0,99.0,5.0,99.0,99.0,4.0,6.0,99.0,2.0,99.0,4.0,5.0,5.0,6.0,6.0,5.0,5.0,99.0,6.0,5.0,5.0,4.0,2.0,4.0,5.0,Education will not be sufficient for students,5.0,5.0,3.0,5.0,5.0,5.0,5.0,5.0,5.0,5.0,3.0,4.0,5.0,4.0,4.0,3.0,5.0,6.0,4.0,5.0,4.0,4.0,5.0,5.0,1.0,1.0,Dungeons and dragons played online,4.0,5.0,5.0,4.0,4.0,1.0,I made precisely one trip to the store during the quarantine and found it to be loaded with older people who weren't keeping social distance. It made me very worried for how bad this is going to be.,3.0,2.666667,3.666667,4.666667,5.0,4.333333,4.0,4.8
71208,784,2020-04-01 21:16:11,EN,41,Female,Up to 12 years of school,Up to 12 years of school,Full time employed,United States,no,Texas,Single,1.0,Yes,Isolated,1.0,0.0,,Program D,No,1.0,5.0,2.0,5.0,5.0,1.0,4.0,4.0,1.0,1.0,2.0,4.0,3.0,8.0,10.0,9.0,9.0,9.0,6.0,10.0,4.0,5.0,6.0,5.0,6.0,6.0,4.0,6.0,5.0,5.0,2.0,3.0,3.0,4.0,2.0,3.0,3.0,2.0,5.0,2.0,4.0,5.0,1.0,5.0,5.0,3.0,4.0,5.0,2.0,1.0,99.0,5.0,5.0,6.0,1.0,1.0,99.0,6.0,1.0,6.0,6.0,4.0,1.0,1.0,1.0,3.0,2.0,2.0,1.0,1.0,4.0,1.0,,1.0,4.0,5.0,6.0,6.0,6.0,6.0,6.0,6.0,1.0,5.0,6.0,5.0,1.0,5.0,6.0,6.0,6.0,5.0,3.0,2.0,5.0,2.0,4.0,1.0,5.0,,5.0,6.0,2.0,2.0,2.0,5.0,,1.7,3.0,3.333333,2.333333,3.666667,5.333333,3.666667,4.7
71225,705,2020-04-02 21:12:22,SME,31,Female,"College degree, bachelor, master",Some College or equivalent,Not employed,United States,yes,Texas,Married/cohabiting,1.0,Yes,Isolated,1.0,1.0,,Program C,No,4.0,4.0,4.0,3.0,3.0,3.0,3.0,3.0,4.0,3.0,4.0,4.0,4.0,8.0,10.0,8.0,10.0,9.0,10.0,10.0,10.0,6.0,6.0,6.0,6.0,6.0,7.0,5.0,5.0,5.0,4.0,5.0,4.0,5.0,5.0,5.0,4.0,5.0,5.0,5.0,5.0,5.0,1.0,5.0,6.0,4.0,2.0,6.0,5.0,4.0,6.0,5.0,4.0,2.0,1.0,6.0,4.0,5.0,5.0,6.0,6.0,6.0,5.0,5.0,5.0,5.0,5.0,4.0,6.0,5.0,6.0,4.0,,,,,,,,,,,,,,,,,,,,,,,,,,,,,,,,,,,,3.4,4.0,4.0,3.666667,5.0,5.666667,5.0,
71237,1433,2020-04-01 21:22:58,EN,31,Female,"College degree, bachelor, master",Up to 12 years of school,Full time employed,United States,no,Oregon,Married/cohabiting,2.0,No,Isolated,2.0,2.0,Program B,,No,5.0,3.0,5.0,3.0,3.0,4.0,3.0,2.0,4.0,4.0,3.0,3.0,5.0,6.0,9.0,5.0,10.0,7.0,7.0,7.0,7.0,5.0,5.0,5.0,5.0,3.0,8.0,4.0,3.0,3.0,3.0,4.0,2.0,5.0,4.0,3.0,4.0,2.0,5.0,3.0,5.0,3.0,4.0,4.0,4.0,4.0,4.0,4.0,4.0,6.0,5.0,99.0,5.0,5.0,4.0,2.0,4.0,6.0,6.0,4.0,4.0,6.0,6.0,5.0,3.0,4.0,5.0,3.0,4.0,2.0,6.0,4.0,,5.0,5.0,5.0,5.0,5.0,5.0,5.0,5.0,5.0,5.0,3.0,5.0,5.0,5.0,4.0,4.0,2.0,2.0,5.0,4.0,2.0,4.0,4.0,5.0,5.0,3.0,,4.0,4.0,4.0,4.0,4.0,5.0,,3.8,3.666667,4.333333,2.666667,3.666667,3.666667,3.666667,5.0
71252,433,2020-04-02 21:04:53,EN,23,Female,"College degree, bachelor, master",College degree,Not employed,United States,yes,Texas,Single,0.0,No,Isolated,3.0,0.0,Program A,,No,4.0,3.0,4.0,3.0,3.0,4.0,5.0,2.0,4.0,3.0,4.0,5.0,3.0,6.0,5.0,0.0,1.0,3.0,1.0,8.0,3.0,4.0,5.0,5.0,6.0,6.0,2.0,6.0,6.0,6.0,1.0,1.0,1.0,5.0,5.0,4.0,4.0,4.0,5.0,3.0,6.0,4.0,4.0,3.0,5.0,4.0,4.0,5.0,,,,,,,,,,,,,,,,,,,,,,,,,,,,,,,,,,,,,,,,,,,,,,,,,,,,,,,,,,,,3.3,4.0,4.333333,3.333333,4.333333,3.666667,4.0,
71264,762,2020-04-02 21:08:50,SME,23,Male,"Some College, short continuing education or equivalent",Up to 6 years of school,Not employed,United States,yes,Texas,Single,1.0,Yes,Isolated,3.0,1.0,,Program D,Not sure,3.0,3.0,5.0,3.0,2.0,3.0,3.0,1.0,5.0,3.0,4.0,3.0,5.0,0.0,3.0,2.0,2.0,5.0,6.0,10.0,10.0,6.0,6.0,5.0,6.0,6.0,6.0,5.0,6.0,6.0,1.0,2.0,3.0,6.0,6.0,3.0,6.0,3.0,4.0,3.0,4.0,4.0,3.0,1.0,5.0,6.0,2.0,6.0,,,,,,,,,,,,,,,,,,,,,,,,,,,,,,,,,,,,,,,,,,,,,,,,,,,,,,,,,,,,3.7,4.0,5.333333,4.0,3.666667,3.333333,5.666667,
71273,833,2020-04-01 21:09:25,EN,36,Female,"Some College, short continuing education or equivalent",Some College or equivalent,Full time employed,United States,no,Illinois,Single,0.0,No,Isolated,3.0,0.0,Program A,,No,2.0,3.0,3.0,3.0,3.0,3.0,4.0,3.0,2.0,3.0,1.0,1.0,3.0,6.0,7.0,1.0,2.0,2.0,1.0,8.0,2.0,2.0,5.0,3.0,6.0,5.0,1.0,6.0,4.0,4.0,4.0,4.0,2.0,3.0,3.0,4.0,2.0,3.0,3.0,5.0,6.0,4.0,3.0,5.0,4.0,3.0,4.0,4.0,2.0,4.0,99.0,2.0,1.0,5.0,4.0,4.0,99.0,4.0,3.0,5.0,5.0,6.0,3.0,5.0,1.0,3.0,4.0,5.0,2.0,5.0,5.0,1.0,,6.0,6.0,6.0,5.0,6.0,6.0,6.0,6.0,5.0,6.0,1.0,2.0,5.0,1.0,2.0,5.0,4.0,3.0,5.0,4.0,3.0,3.0,1.0,6.0,2.0,4.0,,3.0,5.0,6.0,3.0,4.0,4.0,,2.7,1.666667,3.0,3.0,5.0,4.333333,3.333333,5.8
71316,571,2020-04-02 21:01:18,SME,26,Female,"College degree, bachelor, master",Up to 6 years of school,Self-employed,United States,yes,Cali,Married/cohabiting,0.0,Yes,Isolated,3.0,0.0,,Program D,No,5.0,3.0,5.0,4.0,3.0,4.0,4.0,3.0,5.0,4.0,5.0,3.0,5.0,6.0,6.0,5.0,10.0,6.0,10.0,8.0,2.0,4.0,6.0,5.0,5.0,4.0,0.0,6.0,6.0,6.0,5.0,6.0,4.0,6.0,5.0,3.0,5.0,4.0,2.0,6.0,5.0,6.0,3.0,2.0,6.0,5.0,5.0,6.0,6.0,6.0,99.0,6.0,5.0,6.0,1.0,6.0,1.0,5.0,4.0,6.0,6.0,6.0,6.0,6.0,6.0,6.0,6.0,3.0,6.0,5.0,6.0,6.0,X,,,,,,,,,,,,,,,,,,,,,,,,,,,,,,,,,,,3.6,4.333333,5.0,4.666667,5.666667,4.0,4.333333,
71351,968,2020-04-01 21:04:08,EN,43,Male,"College degree, bachelor, master",Some College or equivalent,Full time employed,United States,no,MN,Single,0.0,Yes,Isolated,0.0,0.0,,Program C,No,2.0,2.0,4.0,2.0,2.0,5.0,2.0,1.0,3.0,4.0,5.0,5.0,5.0,2.0,5.0,2.0,2.0,9.0,4.0,7.0,1.0,4.0,6.0,4.0,6.0,6.0,0.0,5.0,5.0,5.0,2.0,2.0,4.0,5.0,5.0,3.0,5.0,2.0,5.0,6.0,6.0,6.0,4.0,4.0,3.0,4.0,4.0,3.0,3.0,5.0,99.0,2.0,4.0,4.0,2.0,99.0,99.0,5.0,4.0,5.0,6.0,6.0,2.0,2.0,4.0,6.0,5.0,2.0,2.0,2.0,5.0,4.0,Structural inability of American captialism to comprehend altruism and group survival,2.0,4.0,4.0,1.0,1.0,3.0,1.0,3.0,3.0,2.0,4.0,2.0,5.0,1.0,5.0,4.0,4.0,4.0,3.0,2.0,4.0,4.0,5.0,4.0,2.0,4.0,,4.0,4.0,4.0,2.0,4.0,2.0,"I had been putting off medical needs until my financial situation was more stable, and now I don't know when I will be able to pursue treatment.",3.7,5.0,4.666667,3.0,6.0,3.333333,3.333333,2.4
71364,599,2020-04-01 20:56:43,EN,36,Female,PhD/Doctorate,College degree,Full time employed,United States,no,Ohio,Married/cohabiting,2.0,Yes,Isolated,2.0,0.0,Program A,,No,3.0,3.0,3.0,4.0,3.0,3.0,4.0,3.0,2.0,1.0,3.0,3.0,3.0,3.0,6.0,6.0,3.0,10.0,3.0,9.0,6.0,6.0,5.0,6.0,5.0,5.0,4.0,3.0,5.0,5.0,1.0,4.0,1.0,6.0,6.0,4.0,4.0,5.0,3.0,5.0,6.0,6.0,3.0,6.0,6.0,3.0,3.0,5.0,1.0,5.0,6.0,4.0,5.0,3.0,1.0,6.0,1.0,1.0,1.0,6.0,6.0,6.0,1.0,5.0,5.0,5.0,4.0,5.0,6.0,5.0,5.0,1.0,"Protective measures to stay healthy and not being able to access supplies to take those measures- no bleach, paper towels, soap etc in stores.",6.0,6.0,5.0,5.0,5.0,6.0,5.0,6.0,6.0,5.0,4.0,1.0,5.0,1.0,6.0,4.0,2.0,6.0,3.0,6.0,1.0,4.0,6.0,5.0,1.0,5.0,,2.0,6.0,6.0,1.0,1.0,3.0,,2.5,3.0,5.0,4.333333,5.666667,5.333333,4.0,5.5
71381,2480,2020-04-01 21:26:52,EN,35,Female,"Some College, short continuing education or equivalent",College degree,Full time employed,United States,no,California,Married/cohabiting,0.0,Yes,Life carries on with minor changes,1.0,0.0,,Program C,No,3.0,3.0,5.0,3.0,2.0,3.0,2.0,2.0,4.0,3.0,1.0,4.0,3.0,2.0,5.0,1.0,0.0,5.0,0.0,6.0,1.0,5.0,5.0,5.0,6.0,6.0,0.0,5.0,5.0,2.0,4.0,1.0,5.0,6.0,5.0,4.0,4.0,4.0,3.0,4.0,5.0,4.0,5.0,4.0,3.0,3.0,6.0,5.0,6.0,5.0,99.0,99.0,6.0,5.0,1.0,2.0,99.0,4.0,5.0,6.0,6.0,5.0,2.0,5.0,2.0,4.0,2.0,5.0,6.0,5.0,6.0,2.0,Having to cater to or work with others who take it less seriously,6.0,5.0,5.0,6.0,6.0,5.0,6.0,6.0,5.0,6.0,1.0,4.0,2.0,2.0,2.0,4.0,1.0,1.0,4.0,4.0,5.0,1.0,2.0,1.0,1.0,6.0,,2.0,6.0,5.0,5.0,5.0,1.0,,3.6,2.666667,4.666667,4.0,4.333333,3.0,3.0,5.6
71408,883,2020-04-01 20:58:48,EN,32,Female,"Some College, short continuing education or equivalent",Up to 12 years of school,Not employed,United States,no,Florida,Married/cohabiting,2.0,Yes,Isolated,1.0,2.0,,Program D,Yes,4.0,5.0,5.0,3.0,2.0,4.0,2.0,3.0,5.0,4.0,2.0,5.0,5.0,3.0,8.0,2.0,2.0,4.0,2.0,3.0,0.0,6.0,6.0,6.0,6.0,6.0,0.0,6.0,5.0,5.0,4.0,2.0,2.0,5.0,5.0,2.0,3.0,4.0,4.0,6.0,6.0,6.0,5.0,2.0,5.0,4.0,5.0,4.0,2.0,99.0,6.0,99.0,6.0,3.0,99.0,5.0,6.0,4.0,5.0,6.0,6.0,6.0,99.0,3.0,99.0,6.0,5.0,99.0,5.0,3.0,6.0,2.0,,6.0,6.0,6.0,6.0,6.0,6.0,6.0,6.0,6.0,6.0,1.0,3.0,6.0,2.0,5.0,6.0,6.0,5.0,5.0,4.0,2.0,4.0,4.0,5.0,1.0,1.0,,6.0,6.0,6.0,6.0,6.0,1.0,,4.1,4.0,5.0,3.333333,6.0,3.0,3.333333,6.0
71411,1152,2020-04-01 21:03:12,SME,28,Female,"College degree, bachelor, master",College degree,Not employed,United States,yes,California,Married/cohabiting,1.0,Yes,Life carries on with minor changes,2.0,1.0,,Program D,No,2.0,1.0,2.0,5.0,4.0,2.0,4.0,4.0,2.0,1.0,1.0,3.0,4.0,6.0,8.0,4.0,8.0,4.0,8.0,9.0,7.0,6.0,5.0,5.0,4.0,4.0,3.0,4.0,5.0,6.0,4.0,3.0,5.0,2.0,2.0,5.0,3.0,4.0,5.0,4.0,5.0,4.0,1.0,5.0,6.0,6.0,2.0,5.0,5.0,99.0,5.0,5.0,4.0,4.0,1.0,2.0,1.0,5.0,5.0,6.0,5.0,6.0,99.0,4.0,2.0,3.0,4.0,5.0,4.0,5.0,4.0,6.0,,6.0,6.0,4.0,5.0,6.0,5.0,6.0,6.0,6.0,6.0,4.0,4.0,5.0,5.0,5.0,5.0,1.0,5.0,5.0,3.0,5.0,5.0,4.0,5.0,4.0,4.0,,3.0,5.0,5.0,5.0,5.0,2.0,,1.7,2.666667,2.0,3.0,4.333333,5.666667,5.333333,5.6
71462,119,2020-04-02 20:41:31,EN,28,Female,"College degree, bachelor, master",College degree,Full time employed,United States,no,Minnesota,Married/cohabiting,0.0,Yes,Isolated,3.0,0.0,,Program C,,,,,,,,,,,,,,,,,,,,,,,,,,,,,,,,,,,,,,,,,,,,,,,,,,,,,,,,,,,,,,,,,,,,,,,,,,,,,,,,,,,,,,,,,,,,,,,,,,,,,,,,,,,,,,,,,,,,
71463,1042,2020-04-01 20:56:39,EN,46,Female,PhD/Doctorate,College degree,Full time employed,United States,yes,,Single,2.0,No,Isolated,1.0,2.0,Program B,,Yes,3.0,1.0,3.0,4.0,4.0,2.0,4.0,3.0,2.0,3.0,2.0,1.0,1.0,7.0,9.0,7.0,6.0,8.0,8.0,8.0,6.0,5.0,5.0,5.0,6.0,6.0,2.0,6.0,5.0,6.0,4.0,4.0,5.0,2.0,2.0,6.0,4.0,4.0,4.0,5.0,5.0,5.0,3.0,5.0,5.0,4.0,4.0,4.0,2.0,3.0,5.0,3.0,2.0,5.0,1.0,1.0,2.0,6.0,4.0,5.0,5.0,6.0,4.0,4.0,2.0,3.0,5.0,3.0,5.0,2.0,6.0,5.0,,5.0,5.0,5.0,6.0,6.0,5.0,6.0,5.0,4.0,6.0,4.0,2.0,6.0,1.0,6.0,5.0,1.0,1.0,1.0,2.0,5.0,4.0,3.0,2.0,1.0,4.0,,3.0,4.0,3.0,3.0,2.0,5.0,,2.3,1.333333,1.666667,3.666667,5.0,4.666667,3.666667,5.3
71464,636,2020-04-02 20:49:55,EN,40,Female,"Some College, short continuing education or equivalent",PhD/Doctorate,Self-employed,United States,no,Ca,Divorced/widowed,2.0,Yes,Isolated,0.0,2.0,Program A,,No,5.0,5.0,4.0,3.0,2.0,3.0,3.0,3.0,2.0,3.0,4.0,2.0,5.0,6.0,9.0,2.0,,3.0,2.0,10.0,2.0,6.0,6.0,6.0,6.0,6.0,0.0,5.0,5.0,6.0,5.0,4.0,4.0,3.0,4.0,5.0,6.0,6.0,1.0,5.0,6.0,6.0,2.0,5.0,6.0,4.0,3.0,5.0,6.0,6.0,5.0,6.0,5.0,5.0,1.0,99.0,5.0,6.0,4.0,5.0,5.0,5.0,6.0,5.0,5.0,6.0,5.0,6.0,4.0,1.0,6.0,6.0,,6.0,6.0,6.0,6.0,6.0,6.0,6.0,6.0,6.0,6.0,4.0,1.0,6.0,1.0,5.0,5.0,5.0,5.0,5.0,5.0,4.0,5.0,4.0,5.0,1.0,2.0,,2.0,6.0,6.0,3.0,3.0,3.0,"Im a self-employed sole proprietor who lives in one of the most expensive areas of the country, and cannot perform my work during the shutdown (photography). The stimulus checks wont even cover one month of rent. I am afraid I will be financially devastated by this.",3.5,3.666667,3.0,6.0,5.666667,5.333333,4.333333,6.0
71466,801,2020-04-01 20:52:07,EN,42,Female,"College degree, bachelor, master",College degree,Full time employed,United States,no,iowa,Divorced/widowed,5.0,Yes,Isolated,2.0,5.0,,Program D,Yes,3.0,4.0,5.0,3.0,3.0,4.0,2.0,3.0,4.0,4.0,4.0,2.0,4.0,3.0,8.0,2.0,5.0,5.0,2.0,6.0,1.0,5.0,6.0,4.0,6.0,5.0,0.0,5.0,4.0,5.0,2.0,1.0,4.0,5.0,4.0,4.0,3.0,2.0,5.0,5.0,5.0,5.0,3.0,4.0,4.0,6.0,2.0,5.0,2.0,5.0,3.0,4.0,5.0,3.0,6.0,6.0,5.0,5.0,4.0,6.0,6.0,3.0,2.0,3.0,5.0,5.0,4.0,3.0,3.0,3.0,6.0,6.0,,4.0,4.0,3.0,5.0,5.0,5.0,5.0,5.0,5.0,3.0,2.0,2.0,5.0,2.0,5.0,4.0,2.0,2.0,4.0,2.0,2.0,2.0,5.0,4.0,4.0,2.0,,2.0,4.0,2.0,2.0,5.0,2.0,,3.7,3.333333,4.0,2.333333,5.0,4.0,5.333333,4.4
71475,155,2020-04-02 20:37:46,EN,38,Female,"College degree, bachelor, master",College degree,Retired,United States,no,Hawaii,Married/cohabiting,1.0,Yes,Isolated,1.0,0.0,,Program D,,,,,,,,,,,,,,,,,,,,,,,,,,,,,,,,,,,,,,,,,,,,,,,,,,,,,,,,,,,,,,,,,,,,,,,,,,,,,,,,,,,,,,,,,,,,,,,,,,,,,,,,,,,,,,,,,,,,
71476,860,2020-04-01 20:49:14,EN,25,Female,"College degree, bachelor, master",Some College or equivalent,Student,United States,no,Massachusetts,Single,0.0,Yes,Isolated,3.0,0.0,,Program D,No,3.0,3.0,5.0,3.0,3.0,3.0,3.0,2.0,3.0,4.0,4.0,3.0,5.0,6.0,8.0,4.0,7.0,7.0,7.0,8.0,6.0,5.0,5.0,6.0,6.0,6.0,3.0,6.0,6.0,5.0,2.0,1.0,4.0,6.0,6.0,2.0,4.0,3.0,4.0,4.0,5.0,5.0,3.0,4.0,4.0,4.0,4.0,5.0,3.0,6.0,99.0,3.0,3.0,4.0,99.0,3.0,99.0,4.0,5.0,5.0,6.0,4.0,4.0,4.0,4.0,6.0,6.0,4.0,2.0,2.0,4.0,1.0,,6.0,4.0,5.0,5.0,6.0,5.0,6.0,6.0,4.0,6.0,3.0,5.0,4.0,5.0,4.0,4.0,4.0,4.0,5.0,5.0,4.0,4.0,5.0,3.0,2.0,4.0,,4.0,4.0,3.0,2.0,2.0,1.0,Definitely feeling increased depression and anxiety. Depression is progressively getting worse as time is going by due to lack of social interaction.,3.4,4.0,5.666667,3.333333,4.666667,4.0,4.0,5.3
71487,666,2020-04-01 20:41:31,EN,27,Female,"College degree, bachelor, master",Some College or equivalent,Student,United States,no,Minnesota,Single,0.0,Yes,Life carries on with minor changes,1.0,0.0,Program A,,No,5.0,3.0,5.0,3.0,3.0,3.0,2.0,3.0,5.0,3.0,3.0,2.0,3.0,3.0,7.0,3.0,3.0,5.0,4.0,7.0,3.0,5.0,6.0,5.0,6.0,6.0,2.0,6.0,4.0,5.0,5.0,3.0,3.0,6.0,5.0,3.0,6.0,6.0,2.0,4.0,4.0,3.0,4.0,3.0,4.0,5.0,3.0,4.0,2.0,6.0,99.0,4.0,5.0,5.0,1.0,4.0,99.0,5.0,4.0,5.0,5.0,6.0,4.0,4.0,3.0,5.0,6.0,4.0,2.0,2.0,6.0,99.0,,6.0,6.0,6.0,6.0,6.0,6.0,6.0,6.0,6.0,6.0,5.0,1.0,6.0,1.0,5.0,4.0,1.0,2.0,6.0,2.0,5.0,6.0,5.0,4.0,1.0,5.0,,6.0,6.0,6.0,6.0,6.0,6.0,I feel more confident in the leadership and actions of my state government than my federal government.,3.7,2.666667,5.0,5.666667,3.666667,3.333333,4.333333,6.0
71488,1727,2020-04-02 20:59:05,EN,23,Male,"Some College, short continuing education or equivalent",College degree,Full time employed,United States,no,New York,Single,0.0,Yes,Isolated,1.0,0.0,Program A,,No,5.0,3.0,4.0,4.0,3.0,3.0,4.0,3.0,5.0,2.0,4.0,5.0,5.0,2.0,6.0,2.0,2.0,6.0,1.0,7.0,1.0,5.0,5.0,6.0,6.0,6.0,2.0,5.0,5.0,5.0,6.0,2.0,5.0,5.0,6.0,5.0,5.0,3.0,4.0,2.0,5.0,4.0,4.0,4.0,5.0,6.0,2.0,6.0,2.0,3.0,99.0,5.0,6.0,6.0,1.0,2.0,99.0,5.0,,5.0,6.0,6.0,2.0,6.0,5.0,6.0,5.0,6.0,5.0,2.0,6.0,99.0,,6.0,6.0,5.0,4.0,5.0,6.0,5.0,2.0,5.0,5.0,2.0,4.0,5.0,2.0,2.0,1.0,1.0,1.0,3.0,6.0,4.0,6.0,4.0,5.0,1.0,5.0,,6.0,6.0,6.0,5.0,4.0,1.0,"There was no option for it but I am a full time online student and have a full time job. I was tempted to take a break from school while this settles, but decided to use it as an opportunity to push forward.",3.2,4.666667,4.333333,3.666667,3.666667,4.0,5.666667,4.9
71494,648,2020-04-01 20:39:51,EN,36,Female,"College degree, bachelor, master",Some College or equivalent,Full time employed,United States,no,Oregon,Married/cohabiting,2.0,Yes,Life carries on with minor changes,1.0,2.0,Program A,,Not sure,4.0,4.0,5.0,3.0,2.0,5.0,3.0,3.0,4.0,5.0,3.0,3.0,4.0,6.0,9.0,2.0,5.0,5.0,4.0,6.0,1.0,3.0,3.0,3.0,4.0,4.0,1.0,4.0,5.0,5.0,4.0,3.0,4.0,5.0,5.0,3.0,6.0,6.0,2.0,4.0,4.0,4.0,2.0,5.0,5.0,5.0,2.0,5.0,5.0,6.0,5.0,5.0,5.0,6.0,99.0,3.0,6.0,6.0,4.0,4.0,3.0,5.0,6.0,6.0,5.0,5.0,6.0,4.0,5.0,3.0,6.0,6.0,,5.0,5.0,5.0,5.0,5.0,5.0,5.0,6.0,5.0,5.0,2.0,5.0,5.0,5.0,5.0,5.0,1.0,1.0,5.0,5.0,5.0,3.0,4.0,4.0,4.0,2.0,,2.0,2.0,2.0,5.0,3.0,2.0,,4.0,3.333333,4.666667,5.666667,4.0,5.0,5.0,5.1
71506,1104,2020-04-01 20:44:58,EN,71,Female,PhD/Doctorate,College degree,Retired,United States,no,Michigan,Married/cohabiting,0.0,Yes,Life carries on with minor changes,1.0,0.0,,Program D,No,1.0,2.0,4.0,4.0,3.0,2.0,5.0,4.0,4.0,2.0,3.0,2.0,3.0,7.0,10.0,5.0,6.0,7.0,3.0,5.0,1.0,6.0,6.0,6.0,6.0,6.0,1.0,5.0,5.0,6.0,1.0,4.0,4.0,4.0,2.0,5.0,5.0,4.0,5.0,6.0,6.0,5.0,4.0,4.0,6.0,5.0,4.0,6.0,99.0,99.0,99.0,99.0,3.0,2.0,1.0,3.0,99.0,3.0,5.0,6.0,6.0,6.0,99.0,4.0,1.0,4.0,2.0,2.0,2.0,1.0,2.0,2.0,,5.0,6.0,5.0,5.0,5.0,4.0,4.0,6.0,6.0,5.0,1.0,1.0,6.0,2.0,5.0,5.0,1.0,1.0,1.0,6.0,6.0,3.0,2.0,4.0,4.0,4.0,Reading| gardening,1.0,4.0,2.0,3.0,5.0,4.0,"I've taught community disaster preparedness, so was already prepared to ""shelter-in-place"" for an extended period.  I don't rely on media for entertainment, but have a large library. However, I expect to have to fend for myself if I get sick, and that's a bit scary.  My daughter is in England| we might never see one another again.  That's the biggest source of distress for me.",2.3,2.666667,2.666667,3.666667,5.666667,4.333333,4.666667,5.1
71511,584,2020-04-01 20:33:58,FR,25,Female,"College degree, bachelor, master",College degree,Student,United States,no,Californie,Single,0.0,Yes,Isolated,2.0,0.0,,Program C,No,3.0,4.0,5.0,5.0,3.0,2.0,3.0,2.0,4.0,3.0,4.0,4.0,4.0,5.0,7.0,7.0,6.0,4.0,2.0,8.0,6.0,6.0,6.0,6.0,6.0,6.0,5.0,5.0,5.0,4.0,5.0,4.0,3.0,4.0,4.0,5.0,6.0,4.0,4.0,5.0,6.0,5.0,3.0,5.0,4.0,4.0,4.0,6.0,4.0,4.0,2.0,5.0,5.0,5.0,1.0,5.0,2.0,5.0,3.0,4.0,4.0,5.0,4.0,5.0,5.0,5.0,4.0,5.0,5.0,2.0,6.0,6.0,,4.0,4.0,3.0,3.0,4.0,4.0,4.0,5.0,4.0,4.0,4.0,3.0,5.0,2.0,3.0,4.0,4.0,5.0,5.0,4.0,4.0,4.0,4.0,4.0,1.0,5.0,,4.0,4.0,4.0,3.0,4.0,5.0,,3.2,4.0,3.333333,4.333333,5.333333,4.333333,4.333333,3.9
71516,677,2020-04-02 20:34:12,EN,40,Female,PhD/Doctorate,College degree,Part time employed,United States,no,Kentucky,Married/cohabiting,7.0,Yes,Isolated,1.0,7.0,Program A,,No,3.0,3.0,3.0,4.0,3.0,2.0,5.0,4.0,3.0,1.0,2.0,2.0,3.0,7.0,8.0,1.0,5.0,7.0,4.0,9.0,0.0,5.0,6.0,5.0,5.0,5.0,0.0,6.0,6.0,6.0,3.0,5.0,4.0,2.0,2.0,5.0,2.0,2.0,5.0,5.0,3.0,5.0,5.0,5.0,4.0,5.0,3.0,5.0,1.0,1.0,1.0,2.0,4.0,2.0,2.0,1.0,1.0,4.0,6.0,99.0,99.0,2.0,1.0,2.0,1.0,3.0,1.0,1.0,2.0,1.0,4.0,1.0,,6.0,5.0,5.0,6.0,5.0,5.0,6.0,6.0,5.0,6.0,1.0,5.0,4.0,1.0,1.0,5.0,1.0,1.0,1.0,6.0,6.0,4.0,6.0,6.0,4.0,6.0,,2.0,6.0,6.0,4.0,6.0,2.0,,2.3,2.333333,2.0,2.0,4.333333,3.666667,4.666667,5.5
71521,559,2020-04-02 20:30:27,EN,43,Female,"College degree, bachelor, master",Some College or equivalent,Full time employed,United States,no,OREGON,Married/cohabiting,2.0,Yes,Isolated,2.0,2.0,Program B,,Yes,4.0,3.0,4.0,2.0,3.0,4.0,4.0,4.0,4.0,3.0,3.0,3.0,4.0,3.0,7.0,2.0,4.0,4.0,1.0,3.0,2.0,2.0,2.0,2.0,2.0,2.0,8.0,6.0,5.0,6.0,2.0,5.0,2.0,5.0,4.0,5.0,2.0,3.0,5.0,5.0,2.0,5.0,5.0,5.0,5.0,5.0,1.0,5.0,2.0,5.0,99.0,2.0,4.0,3.0,4.0,4.0,6.0,5.0,4.0,3.0,3.0,5.0,5.0,4.0,3.0,5.0,4.0,3.0,4.0,4.0,6.0,1.0,,4.0,4.0,4.0,4.0,5.0,4.0,5.0,5.0,5.0,5.0,2.0,4.0,2.0,3.0,2.0,2.0,1.0,2.0,2.0,4.0,3.0,2.0,5.0,4.0,5.0,2.0,,2.0,3.0,3.0,4.0,2.0,2.0,,3.3,3.333333,3.666667,2.333333,4.0,4.0,5.333333,4.5
71526,879,2020-04-01 20:34:43,EN,30,Male,"College degree, bachelor, master",PhD/Doctorate,Part time employed,United States,no,Minnesota,Single,0.0,Yes,Isolated,1.0,0.0,Program A,,No,2.0,2.0,3.0,4.0,4.0,4.0,3.0,3.0,1.0,2.0,3.0,1.0,2.0,6.0,8.0,4.0,2.0,3.0,3.0,8.0,1.0,5.0,5.0,5.0,4.0,3.0,0.0,4.0,5.0,2.0,2.0,5.0,2.0,5.0,6.0,2.0,6.0,6.0,4.0,5.0,4.0,6.0,4.0,2.0,4.0,4.0,4.0,5.0,5.0,4.0,99.0,2.0,2.0,5.0,99.0,4.0,99.0,4.0,2.0,5.0,4.0,4.0,6.0,3.0,3.0,2.0,2.0,2.0,3.0,2.0,4.0,3.0,,4.0,6.0,5.0,4.0,5.0,5.0,5.0,5.0,5.0,5.0,4.0,3.0,6.0,2.0,4.0,2.0,4.0,4.0,4.0,2.0,2.0,3.0,2.0,5.0,2.0,3.0,,5.0,5.0,5.0,5.0,5.0,3.0,mindfulness meditation,2.4,2.0,5.333333,5.0,5.0,3.0,4.0,4.9
71527,257,2020-04-02 20:23:31,EN,39,Female,"College degree, bachelor, master",College degree,Full time employed,United States,no,Florida,Married/cohabiting,1.0,Yes,Isolated,2.0,1.0,Program B,,,,,,,,,,,,,,,,,,,,,,,,,,,,,,,,,,,,,,,,,,,,,,,,,,,,,,,,,,,,,,,,,,,,,,,,,,,,,,,,,,,,,,,,,,,,,,,,,,,,,,,,,,,,,,,,,,,,,
71528,827,2020-04-01 20:32:23,EN,43,Male,"College degree, bachelor, master",College degree,Full time employed,United States,no,NY,Married/cohabiting,4.0,Yes,Isolated,2.0,3.0,,Program C,No,3.0,2.0,5.0,3.0,2.0,3.0,4.0,3.0,5.0,2.0,1.0,1.0,2.0,6.0,6.0,3.0,4.0,7.0,7.0,10.0,0.0,4.0,6.0,4.0,5.0,5.0,1.0,5.0,5.0,6.0,1.0,5.0,3.0,5.0,5.0,5.0,5.0,3.0,4.0,6.0,4.0,6.0,5.0,4.0,4.0,3.0,4.0,6.0,5.0,6.0,6.0,5.0,5.0,4.0,2.0,5.0,6.0,6.0,2.0,5.0,5.0,3.0,1.0,3.0,3.0,1.0,5.0,4.0,2.0,2.0,6.0,2.0,,4.0,4.0,3.0,2.0,4.0,4.0,3.0,3.0,5.0,4.0,3.0,1.0,4.0,1.0,3.0,4.0,2.0,2.0,1.0,5.0,5.0,1.0,6.0,1.0,2.0,5.0,,1.0,2.0,2.0,1.0,2.0,2.0,"Exercise/fitness has decreased, and I fear for the long term health effects for a large population in the same situation.",3.2,1.333333,4.0,3.666667,5.333333,3.333333,4.0,3.6
71531,1526,2020-04-01 20:42:37,EN,39,Female,"College degree, bachelor, master",Some College or equivalent,Full time employed,United States,yes,AZ,Married/cohabiting,3.0,No,Isolated,1.0,3.0,,Program D,No,3.0,4.0,5.0,3.0,4.0,3.0,4.0,2.0,4.0,4.0,1.0,2.0,3.0,0.0,5.0,0.0,4.0,0.0,5.0,0.0,0.0,5.0,6.0,5.0,5.0,5.0,2.0,5.0,6.0,6.0,1.0,2.0,4.0,5.0,5.0,4.0,5.0,2.0,6.0,6.0,6.0,6.0,5.0,5.0,5.0,6.0,3.0,6.0,1.0,4.0,2.0,2.0,2.0,2.0,2.0,2.0,5.0,5.0,5.0,6.0,6.0,5.0,2.0,2.0,2.0,2.0,2.0,2.0,5.0,2.0,6.0,5.0,,5.0,5.0,2.0,5.0,5.0,5.0,5.0,5.0,5.0,5.0,2.0,2.0,5.0,2.0,5.0,2.0,1.0,2.0,6.0,5.0,4.0,5.0,5.0,5.0,4.0,2.0,,4.0,5.0,6.0,6.0,6.0,2.0,,3.4,2.0,4.333333,2.666667,6.0,4.0,5.333333,4.7
71533,956,2020-04-01 20:31:32,EN,49,Female,"College degree, bachelor, master",College degree,Full time employed,United States,no,Arizona,Married/cohabiting,2.0,No,Isolated,3.0,0.0,,Program D,No,2.0,4.0,3.0,4.0,4.0,2.0,3.0,4.0,3.0,2.0,1.0,2.0,3.0,5.0,7.0,3.0,3.0,7.0,5.0,9.0,,4.0,5.0,5.0,6.0,6.0,3.0,4.0,5.0,5.0,2.0,1.0,4.0,5.0,5.0,3.0,4.0,2.0,5.0,5.0,5.0,5.0,4.0,5.0,5.0,5.0,2.0,5.0,2.0,2.0,4.0,2.0,4.0,2.0,1.0,2.0,99.0,5.0,2.0,4.0,4.0,4.0,2.0,2.0,2.0,2.0,2.0,3.0,4.0,2.0,5.0,2.0,,5.0,5.0,4.0,5.0,5.0,5.0,5.0,5.0,4.0,5.0,4.0,5.0,2.0,2.0,2.0,3.0,2.0,2.0,4.0,5.0,4.0,4.0,3.0,6.0,1.0,4.0,,4.0,4.0,4.0,2.0,4.0,2.0,,2.5,2.0,4.666667,2.666667,5.0,4.333333,5.0,4.8
71537,1258,2020-04-01 20:35:49,EN,66,Female,"Some College, short continuing education or equivalent",Up to 12 years of school,Retired,United States,no,Arizona,Divorced/widowed,0.0,Yes,Isolated,2.0,0.0,Program A,,No,3.0,2.0,4.0,3.0,2.0,3.0,4.0,2.0,3.0,3.0,3.0,2.0,3.0,6.0,7.0,4.0,6.0,6.0,2.0,9.0,2.0,6.0,6.0,6.0,6.0,5.0,1.0,5.0,6.0,6.0,3.0,3.0,3.0,5.0,4.0,5.0,4.0,4.0,4.0,5.0,6.0,4.0,2.0,5.0,6.0,3.0,2.0,5.0,2.0,99.0,99.0,99.0,3.0,6.0,99.0,1.0,99.0,5.0,2.0,6.0,6.0,6.0,2.0,3.0,2.0,4.0,4.0,4.0,4.0,2.0,5.0,1.0,,6.0,5.0,5.0,6.0,6.0,6.0,6.0,6.0,6.0,6.0,3.0,4.0,5.0,4.0,4.0,6.0,4.0,1.0,6.0,2.0,2.0,4.0,4.0,4.0,1.0,4.0,,3.0,5.0,4.0,4.0,5.0,3.0,My sons suicide happened right as the corona virus crisis started. It feels like it just adds to my burden and upset about everything.,3.1,2.666667,3.666667,3.666667,5.0,5.333333,4.333333,5.8
71542,772,2020-04-01 20:25:59,EN,20,Female,"Some College, short continuing education or equivalent",College degree,Student,United States,no,Pennsylvania,Single,0.0,Yes,Isolated,3.0,0.0,,Program C,Yes,5.0,4.0,4.0,3.0,2.0,3.0,3.0,2.0,5.0,5.0,2.0,3.0,3.0,5.0,9.0,3.0,4.0,4.0,1.0,9.0,0.0,5.0,6.0,5.0,6.0,6.0,0.0,6.0,6.0,6.0,2.0,1.0,1.0,4.0,4.0,5.0,2.0,1.0,6.0,4.0,6.0,2.0,2.0,4.0,5.0,5.0,4.0,5.0,6.0,5.0,6.0,1.0,3.0,3.0,99.0,6.0,99.0,5.0,5.0,4.0,4.0,4.0,5.0,2.0,1.0,1.0,3.0,2.0,4.0,1.0,4.0,1.0,,5.0,4.0,4.0,5.0,5.0,4.0,4.0,5.0,3.0,5.0,4.0,2.0,4.0,2.0,4.0,4.0,5.0,2.0,4.0,4.0,1.0,4.0,2.0,3.0,3.0,4.0,,4.0,5.0,5.0,1.0,2.0,1.0,"The United States knows for a fact that we need to just completely shut down. Our people know this, our government knows this, but no one will make the call. What truly worries me is how many people have to be infected and die for our higher ups to make the call. THAT is what worries me.",4.0,2.666667,3.333333,1.333333,4.0,4.666667,4.333333,4.4
71554,706,2020-04-01 20:16:34,EN,44,Female,"College degree, bachelor, master",Up to 12 years of school,Full time employed,United States,no,Alabama,Married/cohabiting,2.0,Yes,Life carries on with minor changes,2.0,2.0,Program B,,Yes,3.0,5.0,5.0,3.0,2.0,2.0,4.0,2.0,3.0,3.0,2.0,2.0,3.0,6.0,8.0,4.0,7.0,6.0,7.0,9.0,3.0,4.0,5.0,6.0,6.0,6.0,2.0,5.0,3.0,4.0,5.0,3.0,4.0,4.0,4.0,5.0,6.0,6.0,1.0,4.0,5.0,4.0,3.0,5.0,5.0,4.0,2.0,5.0,5.0,6.0,6.0,5.0,5.0,6.0,99.0,3.0,6.0,5.0,3.0,6.0,5.0,6.0,6.0,5.0,5.0,5.0,6.0,4.0,6.0,5.0,6.0,5.0,,4.0,5.0,5.0,4.0,5.0,5.0,6.0,6.0,4.0,6.0,2.0,4.0,6.0,5.0,6.0,5.0,3.0,3.0,4.0,5.0,3.0,4.0,2.0,4.0,2.0,2.0,,5.0,5.0,5.0,5.0,6.0,3.0,I cannot provide therapy to my adolescent clients. I had to choose between taking care of my family without pay or going into work.,3.4,2.333333,3.333333,6.0,4.333333,4.666667,4.666667,5.0
71557,2110,2020-04-01 20:37:31,EN,38,Female,"College degree, bachelor, master",College degree,Full time employed,United States,no,California,Married/cohabiting,0.0,Yes,Life carries on with minor changes,1.0,0.0,,Program C,Not sure,3.0,3.0,4.0,4.0,3.0,2.0,4.0,3.0,4.0,2.0,2.0,2.0,3.0,6.0,8.0,3.0,3.0,6.0,6.0,7.0,2.0,4.0,4.0,4.0,6.0,6.0,1.0,5.0,5.0,5.0,1.0,5.0,2.0,6.0,6.0,5.0,4.0,4.0,3.0,6.0,6.0,5.0,3.0,5.0,6.0,5.0,3.0,6.0,2.0,3.0,99.0,4.0,4.0,3.0,99.0,2.0,99.0,5.0,3.0,4.0,4.0,3.0,2.0,2.0,2.0,3.0,2.0,2.0,2.0,2.0,5.0,2.0,Worry over people I dont know getting Coronavirus and their future income,5.0,5.0,5.0,4.0,5.0,5.0,5.0,5.0,5.0,5.0,4.0,2.0,6.0,2.0,6.0,4.0,2.0,2.0,5.0,5.0,4.0,5.0,3.0,4.0,2.0,4.0,,5.0,5.0,4.0,5.0,6.0,3.0,,2.8,2.333333,4.666667,4.0,5.666667,5.0,5.0,4.9
71558,3130,2020-04-01 20:54:11,EN,51,Female,PhD/Doctorate,College degree,Self-employed,United States,no,Indiana,Married/cohabiting,2.0,Yes,Life carries on with minor changes,1.0,1.0,,Program D,No,2.0,3.0,4.0,5.0,5.0,1.0,5.0,5.0,3.0,2.0,1.0,2.0,3.0,4.0,6.0,5.0,5.0,7.0,4.0,6.0,3.0,4.0,5.0,5.0,6.0,6.0,2.0,5.0,5.0,5.0,1.0,2.0,4.0,4.0,3.0,4.0,4.0,5.0,2.0,5.0,5.0,4.0,4.0,5.0,5.0,4.0,1.0,5.0,2.0,4.0,5.0,2.0,4.0,5.0,1.0,2.0,2.0,5.0,4.0,6.0,5.0,6.0,1.0,4.0,4.0,3.0,5.0,4.0,5.0,2.0,5.0,4.0,Not knowing how well others are doing what needs to be done to limit COVID-19,5.0,6.0,5.0,6.0,6.0,6.0,6.0,6.0,5.0,6.0,4.0,6.0,6.0,2.0,6.0,4.0,1.0,1.0,4.0,4.0,4.0,4.0,6.0,4.0,1.0,3.0,,5.0,6.0,4.0,4.0,4.0,4.0,"I have worked from home for years, so this situation has not changed my life to as great a degree as it has for others.",1.9,2.0,3.333333,4.666667,4.666667,4.333333,5.0,5.7
71567,597,2020-04-02 20:08:32,EN,40,Male,"Some College, short continuing education or equivalent",Some College or equivalent,Full time employed,United States,no,Texas,Single,0.0,Yes,Isolated,2.0,0.0,,Program D,No,4.0,2.0,3.0,4.0,3.0,2.0,3.0,4.0,4.0,2.0,3.0,4.0,3.0,3.0,7.0,2.0,2.0,5.0,4.0,8.0,0.0,5.0,6.0,5.0,5.0,5.0,1.0,5.0,5.0,5.0,2.0,3.0,4.0,2.0,2.0,4.0,4.0,1.0,5.0,4.0,5.0,5.0,5.0,5.0,5.0,5.0,4.0,4.0,3.0,4.0,99.0,4.0,4.0,5.0,1.0,5.0,99.0,3.0,5.0,5.0,5.0,4.0,99.0,3.0,5.0,5.0,3.0,5.0,5.0,3.0,4.0,3.0,,5.0,5.0,5.0,5.0,5.0,4.0,5.0,5.0,5.0,5.0,2.0,4.0,5.0,4.0,5.0,4.0,5.0,5.0,4.0,4.0,2.0,3.0,4.0,4.0,1.0,3.0,,6.0,5.0,5.0,4.0,4.0,5.0,,2.7,3.333333,2.333333,2.333333,4.666667,4.0,4.0,4.9
71575,1232,2020-04-01 20:16:24,EN,39,Female,"Some College, short continuing education or equivalent",Up to 12 years of school,Full time employed,United States,no,Arizona,Married/cohabiting,1.0,Yes,Isolated,1.0,1.0,Program A,,No,3.0,3.0,4.0,4.0,3.0,3.0,3.0,4.0,3.0,2.0,1.0,1.0,3.0,6.0,8.0,4.0,7.0,7.0,3.0,8.0,3.0,4.0,6.0,5.0,6.0,6.0,0.0,4.0,5.0,5.0,2.0,2.0,3.0,5.0,2.0,6.0,3.0,4.0,4.0,5.0,4.0,3.0,1.0,5.0,6.0,4.0,5.0,6.0,3.0,2.0,6.0,1.0,4.0,4.0,2.0,1.0,3.0,6.0,6.0,5.0,4.0,99.0,6.0,5.0,2.0,1.0,3.0,4.0,4.0,4.0,6.0,1.0,Coronavirus mutation before we can find treatment/vaccine,6.0,6.0,6.0,6.0,6.0,6.0,6.0,6.0,6.0,6.0,2.0,5.0,3.0,5.0,3.0,4.0,1.0,4.0,5.0,5.0,3.0,4.0,5.0,5.0,3.0,4.0,,5.0,6.0,4.0,5.0,3.0,3.0,,2.8,1.666667,2.666667,3.333333,4.0,5.666667,4.0,6.0
71576,1654,2020-04-01 20:23:17,EN,66,Female,Up to 12 years of school,Up to 12 years of school,Full time employed,United States,no,Oregon,Divorced/widowed,0.0,Yes,Isolated,0.0,0.0,,Program D,No,2.0,3.0,3.0,4.0,3.0,2.0,4.0,4.0,3.0,2.0,4.0,3.0,4.0,6.0,9.0,3.0,5.0,5.0,2.0,7.0,1.0,6.0,6.0,6.0,6.0,6.0,0.0,6.0,6.0,6.0,4.0,2.0,2.0,5.0,4.0,5.0,5.0,3.0,4.0,3.0,5.0,4.0,1.0,5.0,6.0,5.0,2.0,5.0,2.0,2.0,99.0,99.0,4.0,6.0,2.0,99.0,99.0,6.0,6.0,6.0,6.0,6.0,6.0,6.0,2.0,6.0,5.0,99.0,6.0,1.0,6.0,2.0,,6.0,6.0,6.0,6.0,6.0,6.0,4.0,6.0,6.0,6.0,1.0,5.0,6.0,5.0,6.0,6.0,5.0,5.0,6.0,5.0,5.0,5.0,3.0,5.0,5.0,4.0,,6.0,6.0,6.0,6.0,6.0,5.0,,2.4,3.666667,3.666667,3.666667,4.0,5.666667,5.0,5.8
71579,165,2020-04-02 19:58:33,EN,55,Female,"College degree, bachelor, master",Some College or equivalent,Not employed,United States,no,Minnesota,Divorced/widowed,1.0,Yes,Isolated,3.0,0.0,,,,,,,,,,,,,,,,,,,,,,,,,,,,,,,,,,,,,,,,,,,,,,,,,,,,,,,,,,,,,,,,,,,,,,,,,,,,,,,,,,,,,,,,,,,,,,,,,,,,,,,,,,,,,,,,,,,,,,
71582,1092,2020-04-01 20:12:18,EN,43,Female,"Some College, short continuing education or equivalent",College degree,Full time employed,United States,no,Washington,Single,0.0,Yes,Isolated,0.0,0.0,,Program D,No,5.0,3.0,5.0,5.0,3.0,1.0,5.0,5.0,5.0,1.0,5.0,3.0,5.0,6.0,9.0,0.0,0.0,9.0,,9.0,,6.0,6.0,6.0,6.0,6.0,0.0,5.0,2.0,3.0,5.0,4.0,2.0,2.0,2.0,5.0,6.0,6.0,1.0,6.0,6.0,6.0,2.0,6.0,6.0,4.0,3.0,5.0,1.0,4.0,99.0,2.0,5.0,6.0,1.0,99.0,99.0,6.0,6.0,6.0,6.0,6.0,2.0,2.0,1.0,6.0,4.0,2.0,4.0,4.0,6.0,6.0,One of the things that distresses me greatly is the amount of people that don't seem to understand the gravity of this situation.,6.0,6.0,6.0,5.0,6.0,6.0,6.0,5.0,6.0,6.0,1.0,6.0,6.0,6.0,6.0,3.0,6.0,6.0,3.0,2.0,5.0,1.0,2.0,1.0,1.0,1.0,,1.0,2.0,2.0,2.0,2.0,3.0,"The Coronavirus is very scary, but two things scare me even more.  1)  What I perceive as the impending collapse of society as we know it 2)  The fact that people do not/are unable to perceive that and are treating this whole thing as some sort of inconvenience, and that all we have to do is wait this out and then everything will go back to the way things were.  That is insane to me, and it makes me sad.",2.6,4.333333,2.0,6.0,6.0,5.666667,4.333333,5.8
71583,192,2020-04-02 19:58:02,LT,33,Female,PhD/Doctorate,College degree,Full time employed,United States,no,Utah,Single,0.0,No,Life carries on with minor changes,0.0,0.0,Program A,,No,4.0,4.0,4.0,2.0,2.0,4.0,2.0,3.0,3.0,3.0,5.0,4.0,5.0,,,,,,,,,,,,,,,,,,,,,,,,,,,,,,,,,,,,,,,,,,,,,,,,,,,,,,,,,,,,,,,,,,,,,,,,,,,,,,,,,,,,,,,,,,,,,,,3.7,4.666667,,,,,,
71593,3601,2020-04-01 20:48:47,EN,28,Female,"College degree, bachelor, master",College degree,Full time employed,United States,no,MN,Married/cohabiting,0.0,Yes,Isolated,1.0,0.0,,Program D,No,1.0,5.0,5.0,3.0,1.0,2.0,3.0,3.0,4.0,4.0,1.0,1.0,5.0,5.0,10.0,0.0,0.0,8.0,3.0,9.0,0.0,5.0,6.0,6.0,6.0,6.0,0.0,5.0,6.0,6.0,1.0,1.0,5.0,4.0,1.0,6.0,6.0,6.0,1.0,4.0,6.0,4.0,3.0,5.0,5.0,5.0,1.0,6.0,3.0,1.0,99.0,6.0,6.0,5.0,99.0,1.0,99.0,6.0,5.0,6.0,6.0,6.0,1.0,4.0,4.0,1.0,6.0,1.0,1.0,1.0,3.0,2.0,,6.0,6.0,6.0,6.0,6.0,6.0,6.0,6.0,6.0,6.0,1.0,1.0,6.0,1.0,1.0,5.0,6.0,1.0,6.0,6.0,4.0,4.0,4.0,4.0,1.0,1.0,,2.0,3.0,6.0,5.0,3.0,2.0,My partner lost her bartending job because of the crisis.,3.5,2.333333,2.0,6.0,4.666667,4.666667,5.666667,6.0
71598,127,2020-04-02 19:48:51,EN,40,Female,"College degree, bachelor, master",College degree,Part time employed,United States,no,Ca,Single,0.0,Yes,Isolated,0.0,0.0,,,,,,,,,,,,,,,,,,,,,,,,,,,,,,,,,,,,,,,,,,,,,,,,,,,,,,,,,,,,,,,,,,,,,,,,,,,,,,,,,,,,,,,,,,,,,,,,,,,,,,,,,,,,,,,,,,,,,,
71601,340,2020-04-02 19:51:05,BG,25,Male,"College degree, bachelor, master",Up to 12 years of school,Student,United States,yes,Arizona,Single,0.0,Yes,Life carries on with minor changes,0.0,0.0,,,,,,,,,,,,,,,,,,,,,,,,,,,,,,,,,,,,,,,,,,,,,,,,,,,,,,,,,,,,,,,,,,,,,,,,,,,,,,,,,,,,,,,,,,,,,,,,,,,,,,,,,,,,,,,,,,,,,,
71615,600,2020-04-01 19:50:31,EN,42,Female,PhD/Doctorate,Up to 12 years of school,Full time employed,United States,no,Wisconsin,Married/cohabiting,0.0,No,Life carries on with minor changes,,,Program A,,No,2.0,3.0,4.0,3.0,2.0,2.0,2.0,4.0,4.0,2.0,3.0,2.0,4.0,3.0,6.0,1.0,1.0,3.0,2.0,8.0,0.0,5.0,5.0,5.0,4.0,4.0,0.0,5.0,5.0,5.0,2.0,2.0,2.0,5.0,5.0,3.0,5.0,4.0,2.0,5.0,5.0,5.0,5.0,4.0,5.0,6.0,4.0,6.0,2.0,2.0,99.0,4.0,3.0,4.0,1.0,2.0,99.0,6.0,4.0,5.0,6.0,4.0,3.0,5.0,2.0,4.0,5.0,3.0,4.0,2.0,6.0,4.0,,5.0,4.0,5.0,6.0,6.0,5.0,5.0,6.0,5.0,4.0,1.0,4.0,3.0,4.0,3.0,5.0,1.0,1.0,4.0,1.0,3.0,1.0,4.0,3.0,1.0,1.0,,1.0,2.0,2.0,1.0,2.0,2.0,,3.0,3.0,4.666667,4.666667,5.0,3.666667,5.0,5.1
71619,676,2020-04-02 19:49:40,EN,46,Female,"College degree, bachelor, master",PhD/Doctorate,Self-employed,United States,no,GA,Married/cohabiting,2.0,No,Isolated,1.0,1.0,,Program D,No,3.0,4.0,4.0,3.0,3.0,3.0,3.0,1.0,3.0,3.0,3.0,1.0,4.0,6.0,8.0,1.0,8.0,9.0,5.0,8.0,1.0,6.0,6.0,6.0,6.0,6.0,0.0,6.0,6.0,6.0,1.0,4.0,6.0,6.0,5.0,2.0,5.0,5.0,2.0,5.0,6.0,5.0,1.0,4.0,6.0,6.0,3.0,5.0,6.0,6.0,6.0,6.0,6.0,6.0,6.0,5.0,2.0,6.0,5.0,6.0,6.0,6.0,5.0,5.0,5.0,5.0,2.0,5.0,5.0,2.0,5.0,2.0,,,,,,,,,,,,,,,,,,,,,,,,,,,,,,,,,,,,3.4,2.666667,5.333333,5.0,5.333333,5.333333,5.0,
71624,175,2020-04-02 19:37:36,EN,43,Female,"College degree, bachelor, master",College degree,Full time employed,United States,no,New Mexico,Single,0.0,Yes,Isolated,0.0,0.0,Program B,,,,,,,,,,,,,,,,,,,,,,,,,,,,,,,,,,,,,,,,,,,,,,,,,,,,,,,,,,,,,,,,,,,,,,,,,,,,,,,,,,,,,,,,,,,,,,,,,,,,,,,,,,,,,,,,,,,,,
71640,927,2020-04-01 19:44:23,TR,29,Male,PhD/Doctorate,College degree,Full time employed,United States,yes,,Married/cohabiting,0.0,Yes,Life carries on with minor changes,1.0,0.0,Program A,,No,2.0,3.0,2.0,3.0,3.0,2.0,3.0,3.0,4.0,2.0,2.0,4.0,4.0,4.0,7.0,,,1.0,1.0,4.0,,2.0,3.0,2.0,6.0,6.0,3.0,3.0,6.0,6.0,1.0,1.0,4.0,2.0,3.0,5.0,5.0,5.0,1.0,5.0,6.0,4.0,2.0,5.0,5.0,5.0,3.0,4.0,3.0,6.0,1.0,1.0,1.0,2.0,1.0,1.0,1.0,1.0,1.0,4.0,3.0,3.0,6.0,6.0,1.0,3.0,6.0,1.0,1.0,1.0,3.0,1.0,,5.0,5.0,1.0,5.0,5.0,5.0,5.0,5.0,5.0,5.0,1.0,4.0,5.0,2.0,2.0,3.0,4.0,1.0,5.0,4.0,4.0,1.0,4.0,5.0,1.0,1.0,,2.0,5.0,4.0,5.0,3.0,2.0,Acil durum plan gelistirme yetisi ve acil durum lojistik yönetimi becerisi,2.7,3.333333,2.333333,5.333333,5.0,5.0,4.333333,4.6
71642,745,2020-04-01 19:41:07,EN,47,Female,"Some College, short continuing education or equivalent",College degree,Full time employed,United States,no,washington,Married/cohabiting,1.0,Yes,Life carries on with minor changes,1.0,1.0,,Program D,Yes,3.0,2.0,3.0,5.0,4.0,3.0,5.0,4.0,2.0,1.0,1.0,2.0,2.0,3.0,8.0,2.0,4.0,5.0,1.0,9.0,2.0,4.0,5.0,5.0,6.0,5.0,2.0,6.0,1.0,6.0,2.0,2.0,4.0,3.0,2.0,5.0,4.0,4.0,4.0,6.0,6.0,6.0,3.0,4.0,6.0,5.0,2.0,6.0,1.0,1.0,1.0,1.0,1.0,1.0,1.0,1.0,1.0,2.0,1.0,4.0,2.0,4.0,99.0,99.0,1.0,1.0,1.0,1.0,1.0,1.0,1.0,1.0,,6.0,6.0,6.0,6.0,6.0,6.0,6.0,6.0,6.0,6.0,5.0,1.0,5.0,2.0,5.0,5.0,3.0,4.0,5.0,5.0,4.0,5.0,5.0,5.0,4.0,5.0,,3.0,4.0,5.0,5.0,4.0,2.0,,2.0,1.666667,2.333333,3.666667,6.0,4.666667,5.333333,6.0
71651,78921,2020-04-02 17:19:37,EN,29,Other/would rather not say,"College degree, bachelor, master",College degree,Part time employed,United States,no,MA,Married/cohabiting,0.0,Yes,Isolated,2.0,0.0,,Program D,No,2.0,2.0,4.0,3.0,3.0,3.0,3.0,2.0,3.0,3.0,3.0,5.0,4.0,5.0,7.0,1.0,1.0,3.0,1.0,4.0,1.0,3.0,6.0,6.0,6.0,6.0,0.0,5.0,5.0,5.0,1.0,4.0,4.0,5.0,6.0,2.0,3.0,2.0,5.0,4.0,4.0,3.0,4.0,4.0,4.0,4.0,3.0,4.0,4.0,5.0,99.0,6.0,5.0,4.0,99.0,2.0,99.0,5.0,6.0,6.0,6.0,6.0,4.0,5.0,6.0,5.0,5.0,2.0,2.0,2.0,4.0,5.0,"Developmental impact on children in the world and how this could affect their well-being and the well-being of society (i.e., is this a developmental trauma that an entire generation is experiencing)",6.0,5.0,4.0,5.0,6.0,5.0,6.0,6.0,5.0,6.0,1.0,1.0,5.0,1.0,5.0,3.0,1.0,1.0,4.0,3.0,4.0,2.0,5.0,4.0,1.0,3.0,,1.0,1.0,1.0,1.0,1.0,4.0,,3.0,4.0,5.333333,2.333333,3.666667,3.666667,4.0,5.4
71656,1161,2020-04-01 19:40:58,EN,33,Female,"College degree, bachelor, master",Some College or equivalent,Full time employed,United States,no,Florida,Married/cohabiting,0.0,Yes,Isolated,1.0,0.0,Program A,,No,4.0,4.0,5.0,3.0,3.0,3.0,3.0,3.0,4.0,3.0,1.0,2.0,3.0,5.0,8.0,5.0,5.0,6.0,5.0,7.0,5.0,6.0,6.0,6.0,6.0,6.0,4.0,4.0,6.0,6.0,3.0,4.0,4.0,6.0,6.0,4.0,6.0,5.0,2.0,4.0,6.0,5.0,2.0,5.0,6.0,4.0,5.0,5.0,6.0,5.0,99.0,6.0,5.0,4.0,2.0,4.0,99.0,6.0,5.0,6.0,6.0,4.0,99.0,99.0,5.0,1.0,4.0,3.0,6.0,2.0,5.0,1.0,,6.0,6.0,6.0,6.0,6.0,6.0,6.0,6.0,6.0,6.0,4.0,4.0,6.0,2.0,5.0,6.0,5.0,5.0,6.0,5.0,6.0,6.0,2.0,5.0,4.0,4.0,,5.0,6.0,4.0,5.0,6.0,2.0,,3.5,2.0,5.0,5.333333,5.0,5.333333,3.666667,6.0
71670,726,2020-04-01 19:30:05,EN,65,Female,"College degree, bachelor, master",Some College or equivalent,Full time employed,United States,no,North Carolina,Married/cohabiting,0.0,Yes,Life carries on with minor changes,1.0,0.0,Program A,,No,3.0,3.0,1.0,5.0,2.0,1.0,4.0,4.0,3.0,1.0,1.0,2.0,3.0,6.0,10.0,8.0,9.0,9.0,10.0,6.0,9.0,4.0,5.0,4.0,4.0,5.0,9.0,6.0,5.0,5.0,5.0,5.0,4.0,4.0,2.0,5.0,4.0,2.0,6.0,5.0,4.0,3.0,5.0,5.0,5.0,5.0,3.0,6.0,1.0,1.0,99.0,1.0,2.0,6.0,5.0,1.0,99.0,6.0,1.0,4.0,2.0,5.0,1.0,2.0,1.0,2.0,1.0,1.0,2.0,1.0,5.0,1.0,,6.0,6.0,5.0,6.0,6.0,6.0,6.0,6.0,6.0,6.0,5.0,5.0,4.0,1.0,1.0,4.0,4.0,4.0,5.0,3.0,1.0,3.0,1.0,3.0,6.0,5.0,,1.0,1.0,1.0,1.0,1.0,3.0,,2.1,2.0,2.666667,2.333333,4.0,4.0,5.0,5.9
71687,763,2020-04-01 19:26:12,EN,31,Other/would rather not say,"College degree, bachelor, master",College degree,Full time employed,United States,no,Ct,Married/cohabiting,0.0,Yes,Life carries on with minor changes,1.0,0.0,,Program C,No,3.0,2.0,4.0,4.0,4.0,3.0,5.0,3.0,3.0,2.0,2.0,2.0,2.0,3.0,7.0,5.0,2.0,5.0,3.0,8.0,1.0,4.0,3.0,5.0,5.0,5.0,2.0,6.0,5.0,5.0,3.0,4.0,1.0,6.0,6.0,4.0,3.0,1.0,3.0,3.0,5.0,3.0,4.0,4.0,5.0,4.0,5.0,5.0,2.0,5.0,99.0,5.0,4.0,5.0,1.0,1.0,99.0,4.0,3.0,4.0,4.0,4.0,3.0,4.0,2.0,3.0,4.0,1.0,3.0,1.0,6.0,3.0,,5.0,5.0,5.0,5.0,6.0,6.0,6.0,6.0,4.0,6.0,1.0,3.0,2.0,3.0,1.0,5.0,5.0,6.0,5.0,3.0,4.0,1.0,2.0,5.0,1.0,4.0,,1.0,4.0,4.0,4.0,5.0,2.0,,2.5,2.0,5.0,2.666667,3.666667,4.0,3.666667,5.4
71709,2371,2020-04-01 19:48:45,EN,72,Female,"College degree, bachelor, master",Up to 12 years of school,Retired,United States,no,New Mexico,Divorced/widowed,0.0,Yes,Isolated,0.0,0.0,,Program D,No,2.0,3.0,3.0,4.0,3.0,3.0,5.0,3.0,3.0,3.0,5.0,5.0,5.0,5.0,8.0,4.0,4.0,4.0,6.0,8.0,8.0,6.0,6.0,5.0,5.0,5.0,0.0,6.0,6.0,6.0,1.0,5.0,4.0,3.0,2.0,5.0,6.0,6.0,1.0,5.0,6.0,1.0,4.0,5.0,6.0,4.0,1.0,6.0,1.0,2.0,99.0,1.0,2.0,6.0,5.0,99.0,99.0,5.0,2.0,6.0,6.0,6.0,1.0,5.0,2.0,6.0,6.0,2.0,5.0,1.0,5.0,6.0,,5.0,5.0,5.0,5.0,5.0,5.0,5.0,5.0,5.0,5.0,3.0,1.0,6.0,1.0,4.0,5.0,1.0,1.0,5.0,4.0,3.0,5.0,4.0,5.0,5.0,4.0,,4.0,2.0,1.0,4.0,2.0,5.0,,2.6,5.0,2.333333,6.0,4.0,4.666667,5.333333,5.0
71714,41053,2020-04-02 06:32:38,EN,35,Female,"College degree, bachelor, master",College degree,Full time employed,United States,no,MA,Married/cohabiting,0.0,Yes,Isolated,2.0,0.0,,Program D,No,5.0,5.0,5.0,2.0,2.0,4.0,2.0,3.0,4.0,4.0,5.0,4.0,5.0,4.0,8.0,1.0,0.0,7.0,6.0,9.0,0.0,6.0,6.0,6.0,6.0,6.0,0.0,6.0,6.0,6.0,4.0,4.0,2.0,4.0,4.0,6.0,6.0,5.0,2.0,6.0,6.0,6.0,4.0,3.0,6.0,5.0,2.0,6.0,2.0,4.0,99.0,3.0,5.0,6.0,5.0,4.0,99.0,5.0,5.0,6.0,6.0,6.0,2.0,5.0,1.0,6.0,6.0,6.0,2.0,2.0,6.0,5.0,The income of people who live with me.,6.0,6.0,6.0,5.0,5.0,6.0,6.0,6.0,6.0,6.0,1.0,1.0,6.0,1.0,6.0,2.0,6.0,6.0,6.0,5.0,2.0,4.0,5.0,5.0,3.0,2.0,,1.0,5.0,4.0,4.0,4.0,2.0,"I think the Massachusetts government is doing a pretty decent job handling things, but not the US government as a whole. I've filled this out assuming you mean the national government.",4.2,4.666667,3.0,5.333333,6.0,4.0,5.333333,5.8
71718,1347,2020-04-01 19:29:54,EN,49,Female,"College degree, bachelor, master",College degree,Full time employed,United States,no,CA,Married/cohabiting,2.0,Yes,Life carries on with minor changes,1.0,1.0,Program B,,No,3.0,2.0,2.0,4.0,4.0,2.0,4.0,4.0,3.0,2.0,2.0,2.0,2.0,6.0,8.0,5.0,6.0,6.0,8.0,8.0,6.0,6.0,6.0,6.0,6.0,6.0,5.0,6.0,6.0,5.0,4.0,4.0,6.0,2.0,2.0,5.0,2.0,2.0,5.0,6.0,5.0,6.0,2.0,4.0,6.0,6.0,2.0,6.0,3.0,4.0,5.0,5.0,5.0,3.0,3.0,5.0,5.0,6.0,5.0,6.0,6.0,6.0,4.0,4.0,3.0,3.0,3.0,3.0,4.0,4.0,5.0,2.0,"I am union, so i have income. So many others don't.",5.0,5.0,5.0,5.0,5.0,5.0,5.0,5.0,5.0,5.0,4.0,4.0,4.0,4.0,4.0,4.0,5.0,5.0,4.0,5.0,5.0,5.0,5.0,5.0,4.0,4.0,Facebook and Boy Scouts,4.0,5.0,4.0,4.0,5.0,4.0,The germs can be anywhere and could come back in the fall before a vaccination is developed.,2.2,2.0,2.0,2.0,5.666667,5.0,5.666667,5.0
71724,788,2020-04-01 19:19:08,EN,59,Female,"College degree, bachelor, master",Some College or equivalent,Full time employed,United States,no,Louisiana,Married/cohabiting,4.0,Yes,Isolated,4.0,0.0,Program A,,No,2.0,5.0,,4.0,3.0,3.0,3.0,3.0,3.0,1.0,4.0,3.0,,5.0,8.0,3.0,8.0,9.0,10.0,1.0,8.0,3.0,3.0,3.0,1.0,2.0,7.0,3.0,5.0,5.0,6.0,2.0,2.0,3.0,3.0,6.0,6.0,6.0,4.0,4.0,5.0,2.0,3.0,6.0,5.0,4.0,4.0,6.0,99.0,6.0,99.0,99.0,4.0,6.0,3.0,6.0,99.0,6.0,2.0,3.0,3.0,3.0,5.0,5.0,5.0,6.0,4.0,5.0,1.0,2.0,6.0,99.0,,5.0,6.0,5.0,4.0,5.0,5.0,5.0,5.0,4.0,5.0,5.0,4.0,5.0,1.0,4.0,6.0,5.0,4.0,4.0,,3.0,2.0,4.0,2.0,5.0,6.0,,4.0,4.0,1.0,1.0,4.0,4.0,,2.777778,3.5,2.333333,5.0,3.666667,5.0,4.333333,4.9
71738,1100,2020-04-01 19:19:45,EN,40,Female,"College degree, bachelor, master",College degree,Full time employed,United States,no,Arizona,Divorced/widowed,1.0,Yes,Life carries on with minor changes,0.0,0.0,,Program D,No,2.0,3.0,4.0,4.0,3.0,2.0,4.0,4.0,2.0,2.0,4.0,4.0,4.0,6.0,9.0,4.0,9.0,7.0,8.0,10.0,2.0,5.0,5.0,5.0,5.0,5.0,2.0,4.0,5.0,5.0,3.0,4.0,3.0,3.0,3.0,5.0,6.0,6.0,3.0,4.0,6.0,5.0,1.0,5.0,6.0,4.0,1.0,5.0,2.0,5.0,5.0,2.0,6.0,5.0,99.0,1.0,99.0,5.0,1.0,5.0,5.0,4.0,5.0,5.0,2.0,6.0,5.0,2.0,3.0,3.0,6.0,99.0,,6.0,6.0,5.0,6.0,6.0,6.0,6.0,6.0,6.0,6.0,2.0,2.0,6.0,2.0,6.0,5.0,1.0,1.0,6.0,6.0,4.0,5.0,6.0,5.0,1.0,2.0,,4.0,4.0,3.0,5.0,5.0,2.0,,2.4,4.0,2.666667,5.333333,5.0,5.666667,5.0,5.9
71763,587,2020-04-01 19:03:40,EN,31,Female,"College degree, bachelor, master",Up to 12 years of school,Part time employed,United States,no,Az,Married/cohabiting,1.0,Yes,Life carries on with minor changes,1.0,1.0,Program A,,Not sure,4.0,3.0,5.0,3.0,2.0,4.0,3.0,2.0,4.0,3.0,3.0,3.0,4.0,2.0,7.0,1.0,2.0,2.0,1.0,6.0,1.0,5.0,4.0,4.0,5.0,6.0,0.0,4.0,3.0,4.0,4.0,1.0,4.0,5.0,6.0,4.0,5.0,3.0,4.0,5.0,6.0,5.0,3.0,4.0,6.0,5.0,3.0,5.0,6.0,5.0,6.0,6.0,4.0,4.0,1.0,6.0,6.0,6.0,3.0,6.0,6.0,6.0,5.0,3.0,2.0,6.0,5.0,4.0,2.0,2.0,5.0,4.0,,5.0,5.0,4.0,5.0,6.0,4.0,6.0,5.0,5.0,5.0,1.0,2.0,4.0,2.0,3.0,6.0,2.0,2.0,4.0,4.0,4.0,4.0,5.0,4.0,1.0,3.0,,5.0,6.0,4.0,4.0,5.0,2.0,,3.7,3.333333,4.666667,3.666667,5.333333,4.666667,4.666667,5.0
71767,112,2020-04-02 18:54:14,EN,44,Female,"College degree, bachelor, master",Up to 12 years of school,Full time employed,United States,no,MA,Married/cohabiting,1.0,Not sure,Isolated,2.0,0.0,,,,,,,,,,,,,,,,,,,,,,,,,,,,,,,,,,,,,,,,,,,,,,,,,,,,,,,,,,,,,,,,,,,,,,,,,,,,,,,,,,,,,,,,,,,,,,,,,,,,,,,,,,,,,,,,,,,,,,
71793,1964,2020-04-01 19:15:20,EN,39,Female,"College degree, bachelor, master",College degree,Self-employed,United States,no,Massachusetts,Single,0.0,No,Isolated,0.0,0.0,Program A,,Not sure,3.0,3.0,4.0,3.0,3.0,3.0,3.0,2.0,3.0,4.0,3.0,1.0,3.0,2.0,4.0,1.0,7.0,8.0,8.0,7.0,0.0,6.0,4.0,6.0,4.0,6.0,0.0,6.0,6.0,6.0,1.0,1.0,5.0,2.0,1.0,6.0,4.0,1.0,5.0,6.0,6.0,5.0,2.0,5.0,4.0,6.0,2.0,5.0,2.0,5.0,99.0,1.0,2.0,1.0,1.0,99.0,99.0,1.0,5.0,6.0,6.0,6.0,1.0,1.0,4.0,3.0,2.0,99.0,1.0,1.0,2.0,6.0,,5.0,4.0,4.0,6.0,6.0,4.0,6.0,6.0,5.0,5.0,1.0,1.0,6.0,1.0,1.0,5.0,1.0,1.0,4.0,4.0,4.0,5.0,4.0,4.0,1.0,1.0,"it's helpful to think of how i can use this time in a positive way, including exercise and getting healthier, which helps mood also",1.0,5.0,6.0,6.0,6.0,6.0,"I feel like the main threat to my safety is my neighbors, whose judgement and behavior I don't trust at all (I live in an apartment building, so their behavior affects common areas that I can't avoid if I were to go in/out). I feel secure in my apartment, but people in my building are going in/out unnecessarily so I am afraid of the common areas. I don't trust them to not contaminate everything, because they show such a lack of common sense in so many ways even in normal circumstances. The ones I am in touch with are still going in/out unnecessarily. I like some of my neighbors, but I tried to create a building support system, to help out the elderly people in the building, but the petty, vindictive trustees rejected the idea. I don't want to be stuck in a building with these mean spirited, dangerously stupid people. I miss my old building, where my neighbors were kind and had some sense, and I wish I were stuck there instead. I plan to move when I can.",3.3,2.333333,1.333333,2.333333,5.666667,4.666667,5.333333,5.1
71801,1550,2020-04-01 19:04:02,EN,40,Female,"College degree, bachelor, master",College degree,Full time employed,United States,no,Massachusetts,Married/cohabiting,2.0,Yes,Isolated,2.0,2.0,Program B,,Yes,1.0,3.0,5.0,5.0,4.0,1.0,4.0,4.0,3.0,1.0,3.0,1.0,3.0,6.0,9.0,5.0,5.0,9.0,8.0,10.0,3.0,4.0,5.0,5.0,6.0,6.0,0.0,6.0,5.0,5.0,5.0,5.0,5.0,3.0,1.0,6.0,5.0,5.0,2.0,6.0,6.0,6.0,1.0,5.0,6.0,5.0,1.0,6.0,1.0,4.0,4.0,1.0,4.0,4.0,4.0,4.0,5.0,5.0,5.0,5.0,6.0,5.0,1.0,5.0,3.0,5.0,6.0,2.0,2.0,1.0,4.0,5.0,"Very distressed about encroaching authoritarianism, destruction of environmental regulation, erosion of human rights",6.0,5.0,6.0,6.0,6.0,6.0,6.0,6.0,6.0,6.0,5.0,6.0,6.0,1.0,5.0,6.0,5.0,5.0,4.0,4.0,4.0,5.0,5.0,5.0,4.0,6.0,"Interacting with my children, playing games with my family",5.0,6.0,4.0,6.0,6.0,5.0,"My and my husbands ability to continue working full time remotely, and the supportive stance of our employers helps tremendously",2.1,2.333333,1.666667,5.0,6.0,5.666667,5.666667,5.9
71817,1540,2020-04-01 18:59:48,EN,36,Female,"Some College, short continuing education or equivalent",Some College or equivalent,Full time employed,United States,no,NC,Single,0.0,Yes,Life carries on with minor changes,0.0,0.0,,Program D,Not sure,2.0,3.0,3.0,4.0,4.0,2.0,3.0,4.0,2.0,2.0,5.0,2.0,5.0,3.0,6.0,3.0,7.0,7.0,6.0,9.0,0.0,3.0,5.0,5.0,5.0,5.0,0.0,1.0,3.0,5.0,1.0,2.0,1.0,4.0,1.0,5.0,5.0,2.0,5.0,5.0,5.0,6.0,5.0,5.0,2.0,5.0,2.0,5.0,2.0,4.0,99.0,4.0,5.0,3.0,99.0,99.0,99.0,6.0,4.0,5.0,5.0,2.0,1.0,1.0,1.0,4.0,1.0,5.0,5.0,3.0,6.0,1.0,,5.0,5.0,3.0,4.0,6.0,5.0,6.0,6.0,4.0,6.0,1.0,5.0,4.0,1.0,5.0,4.0,6.0,6.0,5.0,4.0,4.0,4.0,5.0,5.0,1.0,2.0,,2.0,4.0,5.0,2.0,1.0,1.0,,2.3,4.0,2.333333,3.0,5.333333,3.0,5.0,5.0
71827,1264,2020-04-01 18:53:00,EN,52,Male,"College degree, bachelor, master",Some College or equivalent,Full time employed,United States,no,Georgia,Single,0.0,Yes,Isolated,0.0,0.0,Program A,,No,4.0,3.0,2.0,4.0,3.0,3.0,5.0,5.0,2.0,2.0,4.0,3.0,4.0,8.0,7.0,7.0,4.0,6.0,2.0,4.0,0.0,6.0,6.0,6.0,4.0,2.0,0.0,5.0,2.0,3.0,2.0,2.0,2.0,5.0,4.0,2.0,4.0,2.0,5.0,4.0,4.0,5.0,4.0,4.0,5.0,6.0,4.0,4.0,3.0,3.0,99.0,3.0,4.0,5.0,4.0,99.0,99.0,3.0,3.0,6.0,4.0,5.0,5.0,4.0,4.0,5.0,5.0,4.0,5.0,4.0,4.0,4.0,,3.0,3.0,2.0,3.0,5.0,5.0,5.0,5.0,4.0,4.0,2.0,3.0,4.0,3.0,3.0,4.0,2.0,2.0,5.0,4.0,3.0,2.0,5.0,4.0,2.0,2.0,,2.0,3.0,5.0,5.0,6.0,2.0,I've realized that I'm not going to pay the out of pocket deductible for healthcare treatment if I get sick,2.3,3.666667,4.666667,2.666667,4.333333,4.0,4.333333,3.9
71828,102,2020-04-02 18:33:03,EN,43,Female,"Some College, short continuing education or equivalent",College degree,Full time employed,United States,no,Pennsylvania,Married/cohabiting,2.0,Not sure,Isolated,2.0,1.0,,Program C,,,,,,,,,,,,,,,,,,,,,,,,,,,,,,,,,,,,,,,,,,,,,,,,,,,,,,,,,,,,,,,,,,,,,,,,,,,,,,,,,,,,,,,,,,,,,,,,,,,,,,,,,,,,,,,,,,,,
71836,543,2020-04-02 18:36:31,EN,53,Female,"College degree, bachelor, master",Some College or equivalent,Full time employed,United States,no,,Married/cohabiting,,Yes,Life carries on with minor changes,2.0,0.0,,Program C,No,5.0,5.0,5.0,3.0,1.0,5.0,3.0,3.0,5.0,5.0,3.0,3.0,5.0,4.0,7.0,0.0,2.0,1.0,1.0,0.0,0.0,6.0,6.0,6.0,6.0,6.0,0.0,6.0,6.0,6.0,1.0,1.0,1.0,6.0,3.0,6.0,4.0,4.0,6.0,6.0,6.0,6.0,1.0,6.0,6.0,6.0,1.0,5.0,,,,,,,,,,,,,,,,,,,,,,,,,,,,,,,,,,,,,,,,,,,,,,,,,,,,,,,,,,,,4.4,3.666667,3.333333,3.0,6.0,6.0,5.666667,
71858,672,2020-04-02 18:31:05,EN,59,Male,"College degree, bachelor, master",Up to 12 years of school,Retired,United States,no,Nc,Married/cohabiting,1.0,Yes,Isolated,2.0,0.0,,,,2.0,3.0,3.0,3.0,3.0,3.0,4.0,3.0,2.0,2.0,2.0,3.0,4.0,6.0,9.0,2.0,8.0,4.0,7.0,1.0,9.0,4.0,5.0,4.0,3.0,2.0,5.0,5.0,5.0,6.0,2.0,5.0,2.0,4.0,3.0,5.0,4.0,4.0,4.0,4.0,5.0,4.0,2.0,5.0,5.0,5.0,2.0,5.0,99.0,5.0,5.0,99.0,5.0,5.0,5.0,,,6.0,5.0,5.0,5.0,5.0,99.0,5.0,,4.0,5.0,2.0,5.0,2.0,5.0,5.0,,,,,,,,,,,,,,,,,,,,,,,,,,,,,,,,,,,,2.6,3.0,3.0,3.666667,4.333333,5.0,5.0,
71862,628,2020-04-01 18:28:43,EN,55,Male,"Some College, short continuing education or equivalent",College degree,Full time employed,United States,no,California,Married/cohabiting,0.0,No,Life carries on with minor changes,1.0,0.0,Program A,,No,3.0,2.0,3.0,5.0,3.0,3.0,2.0,3.0,5.0,2.0,2.0,3.0,4.0,5.0,8.0,1.0,1.0,5.0,2.0,8.0,1.0,4.0,3.0,4.0,5.0,5.0,1.0,6.0,5.0,5.0,1.0,2.0,2.0,5.0,4.0,2.0,5.0,3.0,4.0,5.0,6.0,6.0,2.0,3.0,4.0,5.0,6.0,4.0,2.0,5.0,99.0,6.0,4.0,3.0,99.0,1.0,99.0,6.0,4.0,4.0,4.0,2.0,99.0,1.0,1.0,4.0,3.0,2.0,2.0,1.0,2.0,1.0,,4.0,4.0,2.0,4.0,6.0,5.0,6.0,6.0,4.0,6.0,2.0,4.0,1.0,2.0,3.0,3.0,1.0,1.0,6.0,2.0,3.0,4.0,2.0,3.0,1.0,4.0,,1.0,1.0,1.0,1.0,1.0,3.0,,2.9,3.0,4.666667,3.666667,5.666667,4.0,3.333333,4.7
71864,704,2020-04-01 18:29:19,EN,65,Female,"College degree, bachelor, master",Some College or equivalent,Full time employed,United States,no,Michigan,Married/cohabiting,0.0,Yes,Life carries on with minor changes,1.0,0.0,,Program D,No,2.0,4.0,3.0,5.0,3.0,2.0,5.0,3.0,4.0,1.0,2.0,3.0,2.0,6.0,7.0,5.0,6.0,7.0,5.0,5.0,3.0,4.0,5.0,5.0,6.0,6.0,0.0,5.0,4.0,5.0,2.0,3.0,2.0,3.0,2.0,4.0,5.0,3.0,5.0,5.0,6.0,5.0,2.0,5.0,5.0,3.0,3.0,5.0,3.0,2.0,99.0,4.0,2.0,6.0,4.0,3.0,99.0,99.0,2.0,6.0,5.0,6.0,2.0,2.0,2.0,5.0,3.0,4.0,4.0,1.0,5.0,2.0,,6.0,6.0,6.0,6.0,6.0,6.0,6.0,6.0,6.0,6.0,5.0,4.0,5.0,5.0,5.0,6.0,5.0,2.0,5.0,4.0,2.0,4.0,5.0,6.0,4.0,5.0,,5.0,4.0,5.0,3.0,4.0,3.0,,2.4,2.333333,2.666667,3.333333,5.333333,5.0,4.0,6.0
71872,1454,2020-04-01 18:38:41,EN,47,Female,"College degree, bachelor, master",Up to 12 years of school,Part time employed,United States,no,Michigan,Married/cohabiting,1.0,Yes,Isolated,1.0,1.0,Program A,,No,3.0,3.0,4.0,4.0,1.0,1.0,3.0,2.0,3.0,2.0,3.0,2.0,5.0,6.0,8.0,5.0,6.0,6.0,7.0,9.0,8.0,3.0,5.0,5.0,6.0,5.0,5.0,6.0,5.0,6.0,4.0,5.0,3.0,5.0,4.0,4.0,6.0,6.0,1.0,5.0,6.0,4.0,1.0,6.0,6.0,3.0,2.0,6.0,2.0,3.0,5.0,5.0,2.0,6.0,1.0,4.0,3.0,5.0,3.0,5.0,5.0,4.0,5.0,4.0,4.0,5.0,4.0,2.0,1.0,1.0,6.0,2.0,,6.0,4.0,4.0,5.0,6.0,5.0,6.0,6.0,4.0,4.0,5.0,1.0,6.0,4.0,4.0,5.0,4.0,4.0,6.0,3.0,1.0,5.0,2.0,6.0,5.0,5.0,,4.0,3.0,3.0,4.0,3.0,3.0,,3.0,3.333333,4.0,6.0,5.0,6.0,4.666667,5.0
71886,581,2020-04-01 18:20:12,EN,27,Male,"College degree, bachelor, master",College degree,Full time employed,United States,no,Connecticut,Married/cohabiting,0.0,No,Isolated,2.0,0.0,Program A,,No,2.0,3.0,2.0,5.0,4.0,1.0,4.0,4.0,3.0,1.0,2.0,1.0,4.0,6.0,8.0,3.0,6.0,5.0,5.0,6.0,3.0,2.0,5.0,3.0,6.0,6.0,4.0,6.0,2.0,4.0,2.0,3.0,4.0,4.0,2.0,6.0,6.0,3.0,4.0,4.0,4.0,5.0,5.0,6.0,6.0,5.0,4.0,5.0,99.0,1.0,99.0,99.0,3.0,2.0,1.0,5.0,1.0,5.0,4.0,4.0,5.0,4.0,2.0,2.0,1.0,1.0,1.0,2.0,1.0,1.0,4.0,2.0,,6.0,6.0,6.0,6.0,6.0,5.0,6.0,6.0,5.0,6.0,2.0,2.0,5.0,5.0,3.0,3.0,5.0,5.0,5.0,3.0,2.0,4.0,5.0,5.0,2.0,4.0,,3.0,2.0,2.0,2.0,2.0,3.0,,1.9,2.333333,2.333333,4.0,4.333333,4.666667,4.333333,5.8
71923,635,2020-04-01 18:08:35,EN,31,Female,"College degree, bachelor, master",College degree,Full time employed,United States,no,MD,Married/cohabiting,0.0,Yes,Isolated,1.0,0.0,Program A,,Not sure,4.0,4.0,5.0,4.0,3.0,3.0,3.0,2.0,4.0,3.0,2.0,3.0,3.0,8.0,10.0,1.0,1.0,6.0,3.0,8.0,2.0,2.0,4.0,3.0,6.0,5.0,0.0,5.0,4.0,5.0,5.0,3.0,5.0,4.0,3.0,6.0,3.0,3.0,4.0,6.0,6.0,5.0,2.0,3.0,6.0,5.0,4.0,6.0,2.0,4.0,99.0,4.0,3.0,6.0,1.0,5.0,99.0,2.0,4.0,4.0,4.0,6.0,2.0,2.0,6.0,4.0,5.0,2.0,6.0,4.0,6.0,6.0,,6.0,6.0,5.0,6.0,6.0,5.0,6.0,6.0,6.0,6.0,4.0,6.0,4.0,4.0,4.0,2.0,6.0,3.0,5.0,4.0,1.0,2.0,1.0,4.0,1.0,4.0,,6.0,3.0,5.0,2.0,4.0,2.0,,3.5,2.666667,2.666667,3.0,5.666667,4.666667,4.666667,5.8
71934,241,2020-04-02 17:57:48,EN,48,Female,"Some College, short continuing education or equivalent",Up to 12 years of school,Full time employed,United States,no,California,Single,1.0,Yes,Isolated,1.0,0.0,Program B,,No,4.0,4.0,4.0,4.0,3.0,2.0,3.0,4.0,3.0,3.0,5.0,4.0,5.0,,,,,,,,,,,,,,,,,,,,,,,,,,,,,,,,,,,,,,,,,,,,,,,,,,,,,,,,,,,,,,,,,,,,,,,,,,,,,,,,,,,,,,,,,,,,,,,3.0,4.666667,,,,,,
71942,247,2020-04-02 17:55:47,EN,25,Female,"Some College, short continuing education or equivalent",College degree,Full time employed,United States,no,Fl,Single,0.0,Yes,Isolated,0.0,0.0,,Program C,No,2.0,3.0,5.0,3.0,3.0,3.0,3.0,2.0,3.0,2.0,2.0,1.0,3.0,6.0,9.0,2.0,6.0,1.0,5.0,5.0,5.0,4.0,6.0,4.0,6.0,6.0,6.0,,,,,,,,,,,,,,,,,,,,,,,,,,,,,,,,,,,,,,,,,,,,,,,,,,,,,,,,,,,,,,,,,,,,,,,,,,,,,,,,,3.1,2.0,,,,,,
71958,946,2020-04-01 18:03:41,EN,34,Female,"College degree, bachelor, master",PhD/Doctorate,Full time employed,United States,no,New hampshire,Married/cohabiting,2.0,Yes,Life carries on with minor changes,1.0,1.0,,Program C,No,3.0,3.0,4.0,5.0,3.0,1.0,4.0,4.0,5.0,1.0,1.0,1.0,3.0,3.0,10.0,0.0,8.0,2.0,4.0,9.0,0.0,4.0,6.0,5.0,6.0,6.0,0.0,6.0,6.0,6.0,2.0,1.0,2.0,5.0,4.0,5.0,2.0,3.0,3.0,5.0,4.0,5.0,2.0,3.0,5.0,5.0,4.0,5.0,1.0,2.0,99.0,2.0,5.0,5.0,1.0,1.0,1.0,5.0,5.0,6.0,99.0,6.0,3.0,3.0,2.0,4.0,2.0,5.0,3.0,1.0,5.0,3.0,,6.0,5.0,5.0,6.0,6.0,5.0,6.0,6.0,6.0,6.0,4.0,1.0,6.0,4.0,6.0,2.0,1.0,1.0,5.0,5.0,4.0,5.0,5.0,4.0,6.0,4.0,,5.0,6.0,6.0,6.0,4.0,5.0,,2.5,1.666667,3.666667,3.0,4.666667,4.333333,4.333333,5.7
71965,15256,2020-04-01 21:59:58,LT,34,Female,"College degree, bachelor, master",College degree,Not employed,United States,yes,Juta (Utah),Married/cohabiting,1.0,Yes,Life carries on with minor changes,1.0,1.0,,Program C,No,3.0,3.0,3.0,4.0,1.0,3.0,3.0,4.0,4.0,1.0,2.0,1.0,2.0,5.0,8.0,4.0,7.0,5.0,4.0,10.0,4.0,5.0,6.0,5.0,4.0,6.0,0.0,5.0,5.0,6.0,3.0,4.0,5.0,3.0,3.0,5.0,5.0,5.0,4.0,6.0,4.0,6.0,5.0,5.0,5.0,2.0,5.0,4.0,1.0,1.0,2.0,1.0,4.0,1.0,1.0,1.0,4.0,4.0,1.0,5.0,5.0,6.0,1.0,3.0,4.0,1.0,1.0,1.0,5.0,1.0,2.0,2.0,,6.0,5.0,5.0,6.0,5.0,6.0,6.0,6.0,6.0,5.0,2.0,4.0,6.0,,,5.0,1.0,1.0,2.0,4.0,5.0,1.0,,2.0,1.0,2.0,,4.0,6.0,5.0,4.0,6.0,1.0,"Vyko emes drebejimas mieste, kuriame gyvenu. Priverte susimastyti kad gali buti ir dar blogiau",2.9,1.666667,2.666667,4.333333,5.333333,4.0,2.666667,5.6
71966,2440,2020-04-01 18:26:23,EN,76,Female,"College degree, bachelor, master",Some College or equivalent,Retired,United States,no,Washington,Married/cohabiting,0.0,Yes,Life carries on with minor changes,1.0,0.0,,Program C,No,2.0,2.0,3.0,4.0,3.0,2.0,4.0,3.0,2.0,2.0,1.0,3.0,2.0,4.0,7.0,4.0,6.0,5.0,2.0,7.0,1.0,6.0,6.0,6.0,6.0,6.0,2.0,4.0,3.0,5.0,3.0,3.0,3.0,5.0,4.0,4.0,4.0,4.0,4.0,6.0,5.0,4.0,4.0,5.0,4.0,5.0,2.0,5.0,4.0,2.0,99.0,99.0,4.0,6.0,5.0,2.0,99.0,6.0,2.0,6.0,6.0,6.0,3.0,3.0,1.0,4.0,5.0,3.0,6.0,6.0,3.0,2.0,,5.0,5.0,5.0,5.0,5.0,5.0,5.0,5.0,5.0,5.0,2.0,3.0,6.0,3.0,4.0,5.0,2.0,2.0,3.0,4.0,5.0,5.0,5.0,5.0,4.0,1.0,,5.0,5.0,6.0,3.0,5.0,4.0,Not trusting what our President says or claims,2.3,2.0,4.0,3.666667,5.0,4.0,5.0,5.0
71970,634,2020-04-01 17:55:07,EN,49,Female,"Some College, short continuing education or equivalent",Some College or equivalent,Full time employed,United States,no,Indiana,Married/cohabiting,1.0,Yes,Life carries on with minor changes,1.0,0.0,Program A,,Not sure,3.0,2.0,3.0,4.0,3.0,2.0,3.0,3.0,3.0,3.0,1.0,2.0,2.0,5.0,9.0,1.0,7.0,6.0,2.0,9.0,1.0,2.0,5.0,4.0,5.0,6.0,1.0,5.0,4.0,5.0,2.0,2.0,3.0,3.0,4.0,5.0,6.0,3.0,3.0,3.0,4.0,6.0,4.0,5.0,5.0,2.0,5.0,4.0,2.0,5.0,4.0,2.0,3.0,2.0,4.0,5.0,99.0,6.0,4.0,5.0,6.0,4.0,1.0,5.0,4.0,4.0,2.0,2.0,4.0,4.0,4.0,1.0,Contemplating my own mortality,5.0,5.0,4.0,4.0,5.0,4.0,5.0,6.0,4.0,5.0,2.0,2.0,4.0,3.0,4.0,4.0,1.0,5.0,4.0,4.0,6.0,4.0,4.0,4.0,4.0,1.0,,1.0,5.0,4.0,2.0,4.0,3.0,,2.7,1.666667,3.0,4.333333,4.333333,4.333333,2.666667,4.7
71985,1017,2020-04-01 17:56:48,SME,56,Male,PhD/Doctorate,Up to 12 years of school,Self-employed,United States,yes,Texas,Married/cohabiting,3.0,No,Isolated,3.0,0.0,,Program D,No,4.0,2.0,3.0,4.0,2.0,2.0,4.0,5.0,2.0,2.0,3.0,2.0,2.0,7.0,8.0,1.0,1.0,8.0,8.0,9.0,7.0,6.0,6.0,6.0,5.0,6.0,1.0,5.0,5.0,5.0,1.0,4.0,2.0,5.0,4.0,5.0,5.0,5.0,3.0,5.0,6.0,3.0,2.0,5.0,6.0,6.0,1.0,6.0,5.0,2.0,5.0,5.0,5.0,4.0,5.0,2.0,1.0,6.0,2.0,5.0,5.0,5.0,2.0,2.0,,4.0,2.0,2.0,2.0,3.0,2.0,1.0,,5.0,5.0,4.0,5.0,5.0,5.0,5.0,5.0,4.0,5.0,3.0,6.0,2.0,2.0,4.0,4.0,1.0,1.0,5.0,5.0,4.0,5.0,6.0,5.0,4.0,4.0,,2.0,2.0,3.0,2.0,4.0,5.0,,2.4,2.333333,3.666667,4.666667,4.666667,5.333333,6.0,4.8
72009,1336,2020-04-02 17:56:41,SME,38,,Up to 9 years of school,Up to 6 years of school,Full time employed,United States,yes,New Jersey,Married/cohabiting,1.0,Yes,Life carries on with minor changes,1.0,1.0,Program B,,No,2.0,1.0,3.0,5.0,4.0,1.0,4.0,4.0,1.0,3.0,1.0,1.0,1.0,7.0,8.0,0.0,5.0,8.0,6.0,,5.0,,,,,,6.0,3.0,6.0,6.0,4.0,2.0,6.0,4.0,,6.0,5.0,5.0,3.0,6.0,5.0,5.0,4.0,5.0,5.0,5.0,4.0,6.0,,,,,,,,,,,,,,,,,,,,,,,,,,,,,,,,,,,,,,,,,,,,,,,,,,,,,,,,,,,,1.8,1.0,2.5,4.666667,5.333333,4.333333,4.666667,
72016,938,2020-04-01 17:47:52,EN,44,Female,PhD/Doctorate,College degree,Retired,United States,no,Michigan,Married/cohabiting,0.0,Yes,Isolated,1.0,0.0,Program A,,No,2.0,3.0,4.0,4.0,3.0,2.0,4.0,4.0,3.0,2.0,3.0,1.0,3.0,5.0,8.0,2.0,6.0,8.0,4.0,8.0,2.0,6.0,6.0,6.0,6.0,6.0,0.0,6.0,6.0,6.0,4.0,2.0,1.0,3.0,3.0,5.0,2.0,1.0,6.0,6.0,6.0,5.0,2.0,3.0,5.0,4.0,3.0,5.0,1.0,1.0,99.0,1.0,5.0,4.0,1.0,1.0,99.0,3.0,5.0,6.0,6.0,6.0,1.0,3.0,1.0,1.0,4.0,1.0,4.0,1.0,3.0,1.0,,6.0,6.0,6.0,6.0,6.0,6.0,6.0,6.0,6.0,6.0,3.0,5.0,6.0,2.0,5.0,6.0,6.0,2.0,2.0,5.0,5.0,4.0,4.0,6.0,4.0,4.0,,6.0,6.0,6.0,6.0,6.0,4.0,I have a chronic health issue that is more difficult than normal to handle because 1) the meds I need are in short supply 2) access to my doctors is more difficult and 3) stress makes it worse.,2.5,2.333333,2.666667,1.333333,5.666667,4.333333,4.333333,6.0
72032,784,2020-04-01 17:40:35,EN,28,Female,"College degree, bachelor, master",College degree,Part time employed,United States,no,Colorado,Married/cohabiting,1.0,Yes,Life carries on with minor changes,1.0,1.0,,Program C,No,2.0,2.0,2.0,4.0,3.0,1.0,4.0,3.0,3.0,1.0,1.0,2.0,2.0,5.0,8.0,4.0,4.0,4.0,6.0,9.0,3.0,3.0,6.0,5.0,5.0,5.0,3.0,5.0,4.0,4.0,2.0,3.0,3.0,2.0,2.0,6.0,4.0,4.0,4.0,4.0,4.0,1.0,2.0,5.0,5.0,4.0,4.0,5.0,4.0,1.0,2.0,2.0,3.0,5.0,1.0,2.0,1.0,3.0,3.0,5.0,5.0,1.0,1.0,2.0,3.0,2.0,2.0,4.0,5.0,3.0,4.0,1.0,,6.0,6.0,5.0,6.0,6.0,6.0,6.0,6.0,5.0,6.0,3.0,4.0,2.0,3.0,1.0,4.0,1.0,1.0,4.0,3.0,2.0,4.0,3.0,4.0,1.0,2.0,Reading,5.0,5.0,4.0,2.0,5.0,1.0,I feel like people in my country are so concerned about supporting republicans that they ignore all science on this. They think its not a big deal  Also if you try to present scientific facts they just think youre being a liberal and ignore it.,2.1,1.666667,1.666667,3.666667,3.0,5.0,4.0,5.8
72036,692,2020-04-01 17:38:39,EN,56,Female,"College degree, bachelor, master",Up to 12 years of school,Full time employed,United States,no,Minnesota,Married/cohabiting,0.0,Yes,Isolated,1.0,0.0,,Program D,No,3.0,4.0,4.0,4.0,2.0,2.0,4.0,5.0,4.0,2.0,2.0,1.0,4.0,7.0,8.0,1.0,3.0,3.0,7.0,6.0,,6.0,6.0,6.0,6.0,6.0,0.0,5.0,5.0,6.0,2.0,2.0,4.0,4.0,5.0,4.0,5.0,5.0,2.0,3.0,5.0,2.0,3.0,5.0,4.0,6.0,2.0,6.0,3.0,4.0,99.0,4.0,5.0,5.0,99.0,5.0,99.0,6.0,2.0,6.0,6.0,6.0,5.0,5.0,4.0,5.0,5.0,5.0,6.0,2.0,4.0,99.0,,5.0,5.0,5.0,5.0,5.0,5.0,5.0,5.0,5.0,5.0,2.0,5.0,5.0,4.0,4.0,2.0,4.0,2.0,5.0,5.0,2.0,4.0,5.0,5.0,2.0,5.0,,5.0,5.0,5.0,5.0,2.0,4.0,,2.8,2.333333,4.0,5.0,3.333333,4.333333,5.666667,5.0
72050,465,2020-04-02 17:31:33,EN,43,Female,PhD/Doctorate,College degree,Full time employed,United States,,DC,Married/cohabiting,2.0,Yes,Isolated,1.0,2.0,,Program D,No,2.0,2.0,4.0,3.0,2.0,2.0,4.0,3.0,2.0,2.0,2.0,2.0,4.0,,,,,,,,,,,,,,,,,,,,,,,,,,,,,,,,,,,,,,,,,,,,,,,,,,,,,,,,,,,,,,,,,,,,,,,,,,,,,,,,,,,,,,,,,,,,,,,2.6,2.666667,,,,,,
72054,338,2020-04-02 17:28:28,EN,41,Female,"College degree, bachelor, master",College degree,Self-employed,United States,no,MA,Married/cohabiting,3.0,Yes,Isolated,1.0,3.0,Program A,,No,2.0,2.0,4.0,5.0,4.0,2.0,5.0,4.0,4.0,1.0,1.0,1.0,5.0,9.0,10.0,7.0,8.0,5.0,9.0,10.0,4.0,5.0,6.0,5.0,5.0,5.0,4.0,,,,,,,,,,,,,,,,,,,,,,,,,,,,,,,,,,,,,,,,,,,,,,,,,,,,,,,,,,,,,,,,,,,,,,,,,,,,,,,,,2.1,2.333333,,,,,,
72059,1221,2020-04-02 17:41:27,EN,32,Female,"College degree, bachelor, master",Up to 12 years of school,Full time employed,United States,no,Tennessee,Married/cohabiting,1.0,Yes,Life carries on with minor changes,1.0,0.0,Program A,,No,3.0,4.0,5.0,4.0,3.0,3.0,3.0,3.0,3.0,3.0,2.0,2.0,4.0,8.0,9.0,5.0,9.0,9.0,7.0,10.0,2.0,5.0,5.0,5.0,6.0,6.0,2.0,5.0,5.0,5.0,1.0,5.0,1.0,4.0,4.0,5.0,2.0,2.0,5.0,4.0,5.0,6.0,4.0,5.0,4.0,5.0,4.0,6.0,6.0,4.0,99.0,6.0,4.0,3.0,1.0,4.0,99.0,6.0,5.0,6.0,5.0,5.0,99.0,3.0,2.0,3.0,4.0,3.0,5.0,3.0,6.0,2.0,,6.0,4.0,2.0,5.0,6.0,5.0,6.0,6.0,5.0,6.0,3.0,2.0,6.0,5.0,4.0,3.0,4.0,4.0,4.0,5.0,4.0,3.0,5.0,4.0,1.0,2.0,,6.0,6.0,5.0,5.0,6.0,3.0,"The situation changes every day. My job is hanging by a thread. I am furloughed next week for an indeterminate amount of time. I am the only income for several years due to my husband's chronic condition. He has decided to get a job at the grocery store and I am very worried it will make his existing condition worse or he will get COVID19. He does not recover from illness well. I cannot imagine the world without him, but we need the income to pay for health insurance.",3.2,2.666667,3.333333,2.0,5.0,4.0,4.666667,5.1
72064,1101,2020-04-01 17:38:01,EN,32,Female,"College degree, bachelor, master",Up to 12 years of school,Part time employed,United States,no,California,Married/cohabiting,0.0,Yes,Life carries on with minor changes,1.0,0.0,,Program C,No,4.0,3.0,5.0,4.0,3.0,4.0,2.0,3.0,4.0,3.0,1.0,1.0,4.0,4.0,10.0,2.0,4.0,5.0,7.0,10.0,0.0,6.0,6.0,6.0,6.0,5.0,0.0,6.0,4.0,5.0,3.0,4.0,4.0,5.0,5.0,4.0,6.0,5.0,2.0,5.0,6.0,5.0,5.0,2.0,5.0,5.0,5.0,5.0,6.0,5.0,99.0,6.0,5.0,6.0,5.0,4.0,99.0,6.0,4.0,6.0,6.0,5.0,2.0,4.0,4.0,99.0,5.0,4.0,5.0,2.0,6.0,6.0,,5.0,5.0,5.0,5.0,5.0,5.0,5.0,5.0,5.0,5.0,4.0,6.0,5.0,5.0,6.0,6.0,5.0,5.0,6.0,5.0,5.0,4.0,4.0,6.0,6.0,3.0,,2.0,5.0,5.0,5.0,5.0,3.0,,3.5,2.0,4.333333,5.333333,5.333333,3.0,4.0,5.0
72067,900,2020-04-01 17:34:05,EN,29,Female,PhD/Doctorate,,Student,United States,yes,DELAWARE,Single,0.0,Not sure,Isolated,2.0,0.0,Program A,,Yes,5.0,1.0,3.0,4.0,4.0,1.0,3.0,2.0,4.0,3.0,2.0,3.0,3.0,3.0,4.0,5.0,5.0,7.0,3.0,5.0,4.0,3.0,5.0,5.0,5.0,5.0,3.0,4.0,6.0,6.0,3.0,3.0,5.0,3.0,1.0,6.0,4.0,4.0,5.0,5.0,5.0,6.0,1.0,3.0,6.0,5.0,2.0,5.0,4.0,3.0,99.0,4.0,2.0,4.0,99.0,6.0,99.0,6.0,2.0,1.0,1.0,1.0,4.0,5.0,1.0,2.0,5.0,3.0,1.0,1.0,1.0,1.0,,6.0,4.0,5.0,6.0,6.0,5.0,6.0,5.0,4.0,6.0,3.0,5.0,5.0,5.0,4.0,3.0,1.0,1.0,4.0,3.0,1.0,3.0,5.0,5.0,5.0,5.0,,6.0,6.0,6.0,6.0,6.0,3.0,,2.8,2.666667,1.666667,3.333333,5.333333,5.0,5.0,5.3
72072,1653,2020-04-01 17:45:16,EN,57,Female,"College degree, bachelor, master",College degree,Full time employed,United States,no,California,Other or would rather not say,0.0,Yes,Life carries on with minor changes,1.0,0.0,,Program D,No,2.0,2.0,3.0,3.0,4.0,3.0,3.0,4.0,1.0,2.0,3.0,3.0,4.0,8.0,9.0,5.0,6.0,8.0,6.0,9.0,3.0,5.0,5.0,5.0,5.0,5.0,1.0,5.0,5.0,6.0,3.0,5.0,1.0,2.0,3.0,4.0,4.0,5.0,2.0,4.0,5.0,3.0,3.0,4.0,5.0,5.0,2.0,5.0,3.0,4.0,99.0,3.0,2.0,6.0,99.0,4.0,99.0,6.0,2.0,3.0,4.0,4.0,6.0,5.0,2.0,2.0,5.0,4.0,2.0,2.0,4.0,4.0,,5.0,5.0,5.0,5.0,5.0,5.0,5.0,6.0,5.0,5.0,4.0,5.0,5.0,5.0,4.0,1.0,1.0,1.0,4.0,3.0,2.0,4.0,2.0,3.0,3.0,5.0,,5.0,5.0,5.0,4.0,2.0,5.0,"Im very active person but My activities are with other people albeit strangers- classes, gym, theater. I have options to exercise and be active alone but just cant motivate and its depressing. None of your questions asked if were eating more.",2.3,3.333333,2.666667,4.666667,4.0,4.333333,5.0,5.1
72073,333,2020-04-02 17:23:50,ZH-T,22,Female,"College degree, bachelor, master",College degree,,United States,yes,Minnesota,Married/cohabiting,0.0,Yes,Life carries on with minor changes,0.0,0.0,,Program D,Yes,3.0,3.0,4.0,3.0,2.0,5.0,3.0,4.0,1.0,4.0,5.0,4.0,4.0,6.0,9.0,7.0,6.0,5.0,8.0,,10.0,4.0,5.0,5.0,5.0,5.0,4.0,5.0,6.0,6.0,4.0,4.0,5.0,3.0,4.0,5.0,3.0,4.0,4.0,2.0,2.0,4.0,1.0,5.0,5.0,5.0,3.0,4.0,99.0,99.0,99.0,5.0,5.0,5.0,99.0,99.0,99.0,5.0,99.0,5.0,5.0,5.0,5.0,5.0,5.0,5.0,5.0,5.0,5.0,5.0,5.0,5.0,,,,,,,,,,,,,,,,,,,,,,,,,,,,,,,,,,,,3.2,4.333333,3.0,3.333333,2.666667,5.333333,4.333333,
72088,1262,2020-04-01 17:35:41,EN,72,Male,"College degree, bachelor, master",College degree,Self-employed,United States,no,massachusetts,Single,0.0,Yes,Isolated,0.0,0.0,Program B,,No,1.0,1.0,1.0,5.0,3.0,1.0,5.0,3.0,2.0,1.0,5.0,1.0,5.0,3.0,8.0,,5.0,9.0,7.0,9.0,,6.0,6.0,5.0,3.0,4.0,0.0,6.0,5.0,6.0,2.0,4.0,1.0,3.0,2.0,4.0,5.0,2.0,6.0,5.0,6.0,4.0,4.0,4.0,4.0,5.0,6.0,5.0,1.0,1.0,99.0,1.0,1.0,4.0,1.0,99.0,99.0,5.0,4.0,5.0,4.0,5.0,99.0,99.0,2.0,4.0,5.0,4.0,1.0,1.0,4.0,1.0,,5.0,4.0,4.0,2.0,4.0,5.0,4.0,3.0,5.0,5.0,2.0,1.0,4.0,1.0,4.0,5.0,1.0,1.0,6.0,4.0,1.0,1.0,5.0,5.0,1.0,4.0,,1.0,1.0,1.0,1.0,1.0,1.0,,1.5,3.666667,2.666667,2.666667,5.0,3.666667,3.666667,4.1
72089,588,2020-04-01 17:24:08,EN,37,Female,PhD/Doctorate,College degree,Full time employed,United States,no,New York,Married/cohabiting,2.0,Yes,Isolated,2.0,2.0,Program B,,Not sure,4.0,3.0,3.0,4.0,3.0,2.0,4.0,3.0,3.0,3.0,2.0,2.0,2.0,7.0,8.0,5.0,5.0,5.0,7.0,5.0,5.0,5.0,5.0,5.0,4.0,5.0,1.0,1.0,5.0,5.0,1.0,3.0,4.0,4.0,4.0,3.0,3.0,3.0,5.0,4.0,5.0,3.0,2.0,4.0,5.0,5.0,1.0,5.0,5.0,4.0,3.0,3.0,5.0,2.0,2.0,2.0,4.0,5.0,3.0,6.0,5.0,4.0,5.0,4.0,5.0,2.0,4.0,4.0,3.0,3.0,3.0,2.0,Racism toward Asian Americans and the significant increase in hate crimes,5.0,6.0,5.0,6.0,6.0,6.0,6.0,6.0,6.0,6.0,2.0,5.0,5.0,4.0,4.0,4.0,4.0,1.0,3.0,5.0,4.0,2.0,4.0,5.0,5.0,4.0,,3.0,3.0,3.0,3.0,5.0,1.0,"Again, the amount of anti Asian racism has been threatening to adults and children alike. This virus has perpetuated the anti Asian sentiment and endangering the lives of those who have nothing to do with the origin of the virus. Asian-American Children have been exposed to hate crime and bearing witness to the ugliness of this due to their race.",2.8,2.0,4.0,2.666667,4.0,4.666667,5.333333,5.8
72091,1574,2020-04-01 17:40:01,EN,39,Female,"Some College, short continuing education or equivalent",Up to 12 years of school,Part time employed,United States,no,Colorado,Married/cohabiting,2.0,Yes,Life carries on with minor changes,1.0,0.0,Program A,,No,4.0,3.0,4.0,5.0,3.0,3.0,4.0,4.0,1.0,2.0,1.0,2.0,2.0,1.0,5.0,1.0,2.0,2.0,6.0,8.0,3.0,6.0,6.0,6.0,6.0,6.0,0.0,5.0,6.0,6.0,1.0,1.0,4.0,6.0,5.0,5.0,4.0,4.0,4.0,6.0,6.0,6.0,2.0,4.0,6.0,5.0,1.0,6.0,1.0,5.0,2.0,4.0,1.0,1.0,1.0,4.0,99.0,4.0,2.0,5.0,5.0,5.0,99.0,1.0,2.0,1.0,2.0,3.0,1.0,1.0,2.0,1.0,,6.0,6.0,6.0,6.0,6.0,6.0,6.0,6.0,6.0,6.0,4.0,1.0,5.0,1.0,5.0,6.0,4.0,5.0,4.0,6.0,5.0,4.0,4.0,5.0,5.0,5.0,,4.0,4.0,5.0,4.0,4.0,3.0,"I was ordered by a doctor to stay home due to symptoms.  I work for Costco and they had a special fund to pay me from during that time so I wasnt using all my accrued time off for it.  Theyve added a $2/hr benefit during the outbreak for when we are working, and have offered up to 4 weeks of time off if we feel unsafe.  I have not been at risk of losing my job or insurance, and I wish every other company valued their employees half as much as Costco values and takes care of us.",2.5,1.666667,4.333333,3.666667,6.0,5.0,5.666667,6.0
72094,2008,2020-04-01 17:46:07,EN,32,Female,Up to 12 years of school,PhD/Doctorate,Not employed,United States,no,New Mexico,Single,0.0,Yes,Isolated,1.0,0.0,,Program D,No,4.0,5.0,3.0,3.0,3.0,4.0,3.0,3.0,3.0,1.0,1.0,3.0,2.0,7.0,8.0,5.0,6.0,9.0,6.0,9.0,3.0,5.0,6.0,6.0,6.0,6.0,2.0,6.0,6.0,5.0,2.0,4.0,4.0,3.0,2.0,5.0,4.0,2.0,5.0,5.0,6.0,6.0,2.0,5.0,5.0,4.0,2.0,5.0,99.0,99.0,5.0,99.0,2.0,5.0,1.0,4.0,4.0,4.0,5.0,5.0,5.0,6.0,99.0,99.0,1.0,2.0,2.0,5.0,1.0,1.0,4.0,5.0,The lack of discussion about the disabled community and how we are being bypassed,6.0,5.0,4.0,6.0,6.0,6.0,5.0,6.0,6.0,6.0,4.0,6.0,5.0,5.0,,4.0,5.0,4.0,4.0,6.0,4.0,2.0,4.0,4.0,1.0,3.0,,4.0,3.0,3.0,4.0,2.0,5.0,"The initial information was that Covid19 would be most likely to effect the elderly and those with preexisting health condition. However, very little has been mentioned,  much less discussed that there is a group of patients with preexisting conditions who are not elderly, but rather the disabled community. I have had members who have not been able to even go sit in their patios since January because the N95 makes he relies on daily for life are out. We rely on frequent doctor appointments to maintain at least some level of quality of life, and are now unable to have those because all contact in medical facilities is limited. We feel even more invisible than usual.  ",3.2,2.0,2.333333,2.666667,5.666667,5.0,4.666667,5.6
72099,668,2020-04-01 17:38:08,EN,61,Male,PhD/Doctorate,College degree,Full time employed,United States,no,ohio,Single,0.0,Yes,Isolated,1.0,0.0,,Program D,No,2.0,2.0,2.0,5.0,5.0,1.0,5.0,5.0,2.0,1.0,2.0,1.0,2.0,6.0,8.0,3.0,4.0,5.0,5.0,5.0,3.0,4.0,4.0,4.0,5.0,6.0,0.0,5.0,5.0,5.0,1.0,4.0,3.0,1.0,1.0,6.0,4.0,4.0,2.0,6.0,5.0,5.0,1.0,6.0,5.0,2.0,2.0,5.0,4.0,1.0,99.0,6.0,3.0,2.0,1.0,2.0,99.0,6.0,4.0,5.0,3.0,4.0,2.0,1.0,1.0,1.0,5.0,1.0,1.0,1.0,4.0,4.0,,6.0,4.0,5.0,5.0,6.0,6.0,6.0,6.0,6.0,6.0,4.0,4.0,4.0,2.0,5.0,5.0,5.0,5.0,5.0,5.0,4.0,5.0,6.0,4.0,6.0,4.0,,4.0,4.0,4.0,4.0,4.0,3.0,,1.4,1.666667,1.0,4.333333,5.333333,5.666667,4.0,5.6
72102,1128,2020-04-01 17:30:05,SME,55,Male,PhD/Doctorate,Up to 12 years of school,Full time employed,United States,yes,Nueva York,Married/cohabiting,2.0,No,Life carries on with minor changes,1.0,0.0,Program A,,No,3.0,2.0,3.0,5.0,4.0,1.0,5.0,4.0,3.0,2.0,2.0,2.0,2.0,7.0,8.0,9.0,9.0,9.0,9.0,8.0,9.0,6.0,6.0,6.0,6.0,6.0,6.0,5.0,5.0,5.0,5.0,4.0,4.0,4.0,2.0,5.0,4.0,5.0,4.0,5.0,5.0,5.0,2.0,5.0,5.0,5.0,1.0,5.0,4.0,5.0,5.0,5.0,3.0,3.0,2.0,3.0,2.0,5.0,4.0,4.0,4.0,5.0,4.0,4.0,3.0,3.0,4.0,3.0,4.0,3.0,4.0,4.0,,5.0,5.0,5.0,4.0,5.0,4.0,5.0,5.0,5.0,5.0,5.0,4.0,5.0,4.0,5.0,4.0,2.0,2.0,4.0,4.0,5.0,5.0,5.0,5.0,4.0,4.0,,5.0,5.0,5.0,4.0,5.0,4.0,,2.0,2.0,2.666667,4.0,5.0,5.0,5.333333,4.8
72105,801,2020-04-01 17:24:14,EN,41,Female,PhD/Doctorate,College degree,Not employed,United States,no,California,Married/cohabiting,3.0,Yes,Isolated,1.0,3.0,Program A,,No,2.0,2.0,4.0,4.0,2.0,2.0,3.0,3.0,2.0,2.0,4.0,5.0,4.0,6.0,9.0,5.0,7.0,7.0,7.0,7.0,5.0,1.0,4.0,4.0,6.0,6.0,4.0,4.0,5.0,5.0,2.0,5.0,2.0,4.0,5.0,4.0,1.0,1.0,5.0,3.0,5.0,3.0,3.0,5.0,4.0,5.0,3.0,4.0,1.0,99.0,1.0,99.0,2.0,6.0,6.0,2.0,3.0,5.0,2.0,2.0,3.0,5.0,99.0,3.0,2.0,3.0,5.0,3.0,1.0,2.0,6.0,3.0,,2.0,5.0,4.0,4.0,5.0,2.0,5.0,6.0,3.0,4.0,3.0,4.0,2.0,1.0,2.0,4.0,2.0,2.0,3.0,2.0,2.0,2.0,2.0,4.0,5.0,3.0,,4.0,6.0,4.0,2.0,3.0,5.0,,2.6,4.333333,4.0,1.333333,3.666667,4.333333,4.333333,4.0
72107,446,2020-04-02 17:18:43,EN,54,Female,"Some College, short continuing education or equivalent",College degree,Full time employed,United States,no,Indiana,Married/cohabiting,2.0,Yes,Life carries on with minor changes,1.0,1.0,,Program C,No,2.0,2.0,4.0,3.0,3.0,3.0,3.0,3.0,3.0,3.0,4.0,3.0,4.0,7.0,9.0,1.0,7.0,6.0,7.0,8.0,1.0,5.0,5.0,4.0,3.0,3.0,1.0,5.0,4.0,2.0,5.0,4.0,2.0,5.0,4.0,4.0,5.0,3.0,5.0,3.0,3.0,4.0,3.0,4.0,5.0,4.0,4.0,5.0,,,,,,,,,,,,,,,,,,,,,,,,,,,,,,,,,,,,,,,,,,,,,,,,,,,,,,,,,,,,2.9,3.666667,4.0,3.333333,3.333333,4.333333,4.0,
72111,1245,2020-04-01 17:30:07,EN,48,Male,"College degree, bachelor, master",College degree,Full time employed,United States,no,Pennsylvania,Married/cohabiting,2.0,Yes,Isolated,1.0,1.0,,Program D,No,2.0,2.0,2.0,5.0,3.0,2.0,4.0,5.0,2.0,2.0,2.0,2.0,2.0,6.0,8.0,5.0,7.0,8.0,4.0,9.0,2.0,5.0,5.0,4.0,4.0,4.0,1.0,6.0,5.0,6.0,3.0,4.0,4.0,4.0,2.0,5.0,3.0,1.0,4.0,4.0,3.0,5.0,3.0,4.0,4.0,4.0,4.0,5.0,2.0,3.0,2.0,4.0,4.0,2.0,1.0,2.0,3.0,4.0,4.0,5.0,4.0,5.0,1.0,2.0,4.0,2.0,2.0,3.0,3.0,2.0,6.0,2.0,,6.0,5.0,6.0,6.0,6.0,6.0,6.0,6.0,5.0,6.0,2.0,1.0,5.0,1.0,5.0,3.0,5.0,4.0,5.0,2.0,5.0,2.0,3.0,5.0,1.0,4.0,,4.0,2.0,5.0,5.0,3.0,4.0,,1.9,2.0,2.666667,2.333333,4.0,4.0,4.0,5.8
72131,568,2020-04-01 17:12:14,EN,38,Male,"Some College, short continuing education or equivalent",Some College or equivalent,Part time employed,United States,no,California,Married/cohabiting,0.0,Yes,Isolated,1.0,0.0,,Program C,No,4.0,5.0,4.0,3.0,3.0,4.0,3.0,3.0,5.0,4.0,5.0,5.0,5.0,4.0,7.0,0.0,3.0,7.0,3.0,7.0,0.0,4.0,6.0,5.0,6.0,6.0,0.0,5.0,4.0,4.0,5.0,2.0,2.0,5.0,3.0,4.0,5.0,5.0,2.0,5.0,5.0,4.0,3.0,5.0,5.0,5.0,4.0,4.0,6.0,5.0,99.0,6.0,3.0,6.0,4.0,5.0,99.0,6.0,5.0,4.0,4.0,5.0,3.0,3.0,5.0,6.0,6.0,5.0,5.0,2.0,6.0,2.0,,3.0,6.0,3.0,2.0,3.0,3.0,3.0,4.0,1.0,4.0,4.0,2.0,4.0,2.0,4.0,4.0,5.0,5.0,4.0,3.0,2.0,3.0,2.0,3.0,1.0,4.0,,1.0,5.0,6.0,3.0,5.0,2.0,,3.8,5.0,3.666667,5.0,4.666667,4.666667,4.0,3.2
72195,752,2020-04-01 16:59:34,EN,32,Female,"College degree, bachelor, master",Some College or equivalent,Full time employed,United States,no,California,Single,0.0,Yes,Life carries on with minor changes,,,Program A,,No,4.0,3.0,5.0,3.0,2.0,3.0,3.0,3.0,5.0,4.0,5.0,2.0,4.0,1.0,5.0,,,3.0,2.0,7.0,,4.0,4.0,4.0,6.0,5.0,3.0,4.0,5.0,4.0,4.0,2.0,3.0,4.0,4.0,3.0,2.0,1.0,5.0,1.0,5.0,2.0,4.0,3.0,3.0,5.0,3.0,4.0,3.0,5.0,99.0,6.0,6.0,6.0,99.0,99.0,99.0,4.0,5.0,5.0,6.0,99.0,3.0,6.0,5.0,6.0,5.0,4.0,5.0,3.0,6.0,6.0,,4.0,2.0,2.0,2.0,3.0,2.0,4.0,4.0,2.0,4.0,2.0,5.0,4.0,4.0,4.0,4.0,3.0,4.0,6.0,2.0,3.0,4.0,2.0,6.0,3.0,2.0,,3.0,2.0,4.0,2.0,2.0,1.0,,3.7,3.666667,4.0,1.666667,2.666667,3.0,4.333333,2.9
72214,20270,2020-04-02 22:21:31,EN,40,Male,"Some College, short continuing education or equivalent",College degree,Not employed,United States,no,CA,Single,0.0,Yes,Isolated,22.0,0.0,,,,,,,,,,,,,,,,,,,,,,,,,,,,,,,,,,,,,,,,,,,,,,,,,,,,,,,,,,,,,,,,,,,,,,,,,,,,,,,,,,,,,,,,,,,,,,,,,,,,,,,,,,,,,,,,,,,,,,
72216,1065,2020-04-01 17:01:14,EN,57,Female,"College degree, bachelor, master",College degree,Self-employed,United States,no,California,Married/cohabiting,0.0,Yes,Isolated,2.0,0.0,Program A,,No,2.0,3.0,4.0,3.0,3.0,3.0,3.0,2.0,3.0,3.0,1.0,1.0,4.0,8.0,8.0,2.0,5.0,5.0,2.0,4.0,1.0,5.0,5.0,5.0,6.0,6.0,0.0,6.0,5.0,5.0,4.0,4.0,4.0,4.0,3.0,4.0,5.0,4.0,3.0,3.0,4.0,5.0,2.0,2.0,5.0,4.0,5.0,4.0,6.0,6.0,1.0,4.0,4.0,4.0,1.0,4.0,1.0,6.0,4.0,5.0,5.0,6.0,5.0,4.0,4.0,4.0,2.0,4.0,2.0,1.0,4.0,1.0,Loss of my husband's retirement savings in stock market. Loss of my mother's retirement savings in stock market.,5.0,5.0,5.0,5.0,5.0,5.0,5.0,5.0,5.0,5.0,4.0,6.0,5.0,4.0,4.0,4.0,3.0,3.0,5.0,4.0,5.0,4.0,4.0,4.0,1.0,6.0,Information from my government is full of contradictions (Trump/USA) but I am able to figure out which information is correct| the correct information is helpful,3.0,6.0,6.0,4.0,4.0,3.0,My husband and mother both have retirement accounts which have been drastically reduced by the Coronavirus-related stock market crash. I am certain my government will have no effective plans on what to do with several generations of completely broke seniors. The USA will be a disaster for decades to come.,3.1,2.0,3.333333,4.333333,4.0,4.0,3.333333,5.0
72220,719,2020-04-01 16:53:51,EN,42,Female,"College degree, bachelor, master",College degree,Not employed,United States,no,Alabama,Married/cohabiting,0.0,Yes,Isolated,1.0,0.0,Program A,,No,3.0,3.0,5.0,3.0,2.0,1.0,3.0,2.0,3.0,3.0,3.0,2.0,5.0,0.0,5.0,0.0,0.0,0.0,2.0,8.0,0.0,6.0,6.0,5.0,6.0,6.0,0.0,6.0,6.0,6.0,1.0,1.0,3.0,6.0,5.0,4.0,3.0,1.0,6.0,2.0,6.0,4.0,4.0,5.0,4.0,4.0,3.0,4.0,2.0,99.0,99.0,2.0,4.0,1.0,1.0,2.0,99.0,4.0,5.0,6.0,5.0,6.0,2.0,1.0,5.0,1.0,1.0,3.0,1.0,1.0,2.0,1.0,,6.0,4.0,6.0,6.0,6.0,5.0,6.0,6.0,4.0,6.0,2.0,2.0,6.0,1.0,5.0,5.0,5.0,5.0,5.0,5.0,5.0,1.0,1.0,5.0,1.0,4.0,,2.0,5.0,5.0,3.0,2.0,2.0,"I do not trust our government to contain COVID-19, and I do not believe people are taking proper precautions.",3.2,3.333333,4.666667,1.666667,4.0,4.0,4.0,5.5
72234,1160,2020-04-01 16:59:02,EN,40,Female,PhD/Doctorate,Up to 9 years of school,Full time employed,United States,no,California,Married/cohabiting,1.0,Yes,Isolated,1.0,1.0,,Program C,No,1.0,1.0,2.0,5.0,4.0,1.0,5.0,5.0,2.0,1.0,4.0,1.0,2.0,5.0,9.0,2.0,8.0,8.0,5.0,5.0,2.0,1.0,2.0,2.0,1.0,1.0,8.0,5.0,5.0,5.0,3.0,5.0,4.0,1.0,1.0,6.0,1.0,3.0,5.0,5.0,5.0,4.0,5.0,4.0,5.0,5.0,1.0,6.0,1.0,2.0,1.0,2.0,2.0,2.0,99.0,2.0,1.0,6.0,2.0,2.0,3.0,2.0,1.0,2.0,1.0,2.0,5.0,3.0,1.0,1.0,5.0,5.0,,6.0,4.0,1.0,6.0,6.0,6.0,6.0,4.0,6.0,6.0,1.0,4.0,6.0,4.0,5.0,1.0,5.0,5.0,6.0,6.0,5.0,1.0,5.0,5.0,2.0,1.0,,1.0,6.0,5.0,2.0,2.0,1.0,,1.3,2.333333,1.0,2.0,4.666667,3.666667,5.666667,5.1
72266,524,2020-04-01 16:40:52,EN,39,Male,PhD/Doctorate,PhD/Doctorate,Self-employed,United States,no,Virginia,Divorced/widowed,1.0,No,Isolated,0.0,1.0,,Program D,No,3.0,2.0,3.0,4.0,3.0,3.0,4.0,4.0,3.0,2.0,4.0,2.0,3.0,5.0,9.0,3.0,0.0,8.0,3.0,8.0,1.0,4.0,5.0,4.0,6.0,6.0,1.0,4.0,3.0,5.0,5.0,2.0,5.0,3.0,2.0,5.0,5.0,4.0,4.0,3.0,6.0,5.0,5.0,6.0,4.0,5.0,5.0,5.0,1.0,3.0,6.0,1.0,4.0,5.0,1.0,99.0,4.0,6.0,4.0,3.0,4.0,2.0,5.0,6.0,2.0,5.0,5.0,5.0,2.0,2.0,2.0,2.0,,5.0,5.0,5.0,5.0,5.0,5.0,5.0,5.0,5.0,5.0,2.0,2.0,5.0,4.0,5.0,3.0,4.0,4.0,4.0,4.0,2.0,5.0,5.0,5.0,1.0,3.0,,3.0,5.0,2.0,2.0,5.0,3.0,,2.5,3.0,2.333333,4.0,4.666667,4.0,4.0,5.0
72281,713,2020-04-02 16:40:49,BS,60,Female,"Some College, short continuing education or equivalent",Up to 12 years of school,Retired,United States,yes,,Married/cohabiting,0.0,No,Life carries on with minor changes,1.0,0.0,,,,,,,,,,,,,,,,1.0,1.0,1.0,1.0,1.0,10.0,8.0,1.0,10.0,2.0,4.0,,1.0,,4.0,2.0,6.0,,,4.0,,,,5.0,,,,,4.0,5.0,,,,2.0,4.0,4.0,,,,,,,,,,,,,,,,,,,,,,,,,,,,,,,,,,,,,,,,,,,,,,,,,,,,,,,,,,,,,1.0,2.0,,4.5,,3.0,
72298,573,2020-04-02 16:36:34,EN,38,Female,"Some College, short continuing education or equivalent",Some College or equivalent,Full time employed,United States,no,Oregon,Married/cohabiting,4.0,Not sure,Life carries on with minor changes,2.0,4.0,,Program C,No,1.0,4.0,3.0,3.0,2.0,1.0,4.0,1.0,3.0,4.0,1.0,2.0,1.0,4.0,8.0,0.0,5.0,5.0,0.0,6.0,0.0,4.0,4.0,5.0,6.0,5.0,0.0,5.0,4.0,5.0,4.0,3.0,4.0,4.0,4.0,4.0,3.0,2.0,5.0,5.0,6.0,6.0,4.0,5.0,4.0,1.0,6.0,4.0,,,,,,,,,,,,,,,,,,,,,,,,,,,,,,,,,,,,,,,,,,,,,,,,,,,,,,,,,,,,3.0,1.333333,3.666667,2.333333,5.666667,4.0,2.0,
72338,1096,2020-04-01 16:37:43,EN,32,Female,PhD/Doctorate,Up to 12 years of school,Student,United States,no,Georgia,Married/cohabiting,0.0,Yes,Isolated,1.0,0.0,,Program D,Yes,2.0,2.0,4.0,4.0,3.0,1.0,4.0,3.0,3.0,1.0,1.0,1.0,2.0,3.0,8.0,0.0,2.0,4.0,0.0,1.0,0.0,6.0,6.0,6.0,6.0,6.0,1.0,5.0,6.0,6.0,1.0,2.0,3.0,5.0,4.0,4.0,4.0,1.0,6.0,5.0,4.0,1.0,4.0,5.0,4.0,5.0,2.0,5.0,3.0,4.0,99.0,4.0,2.0,1.0,2.0,1.0,99.0,6.0,4.0,6.0,6.0,5.0,3.0,1.0,5.0,1.0,1.0,6.0,5.0,2.0,5.0,2.0,,6.0,5.0,5.0,6.0,6.0,5.0,6.0,6.0,5.0,5.0,6.0,5.0,5.0,1.0,5.0,4.0,1.0,1.0,4.0,4.0,6.0,6.0,6.0,5.0,4.0,6.0,,5.0,5.0,6.0,3.0,5.0,3.0,,2.3,1.333333,4.0,2.0,3.333333,4.0,5.0,5.5
72342,899,2020-04-01 16:33:28,EN,45,Male,"College degree, bachelor, master",College degree,Not employed,United States,no,Arizona,Divorced/widowed,0.0,Yes,Life carries on with minor changes,0.0,0.0,Program A,,No,5.0,5.0,5.0,2.0,1.0,5.0,3.0,1.0,5.0,5.0,5.0,2.0,4.0,1.0,4.0,5.0,7.0,8.0,5.0,8.0,2.0,6.0,6.0,6.0,6.0,6.0,4.0,4.0,2.0,3.0,5.0,2.0,4.0,5.0,6.0,2.0,4.0,4.0,4.0,6.0,6.0,6.0,4.0,3.0,4.0,5.0,4.0,5.0,2.0,3.0,99.0,6.0,4.0,5.0,5.0,99.0,99.0,6.0,3.0,4.0,4.0,4.0,99.0,5.0,1.0,6.0,2.0,3.0,4.0,4.0,6.0,2.0,,4.0,5.0,6.0,4.0,5.0,5.0,4.0,2.0,5.0,4.0,2.0,1.0,3.0,3.0,4.0,5.0,4.0,1.0,4.0,4.0,2.0,1.0,4.0,4.0,4.0,1.0,,1.0,2.0,4.0,4.0,5.0,2.0,,4.7,3.666667,5.333333,3.666667,6.0,3.333333,4.333333,4.4
72346,1248,2020-04-01 16:38:30,EN,35,Female,"College degree, bachelor, master",PhD/Doctorate,Part time employed,United States,no,New Mexico,Married/cohabiting,1.0,Yes,Life carries on with minor changes,1.0,1.0,,Program C,No,3.0,4.0,4.0,3.0,2.0,3.0,3.0,2.0,3.0,3.0,3.0,3.0,4.0,6.0,9.0,4.0,7.0,8.0,9.0,10.0,5.0,4.0,6.0,6.0,6.0,6.0,2.0,5.0,5.0,5.0,2.0,4.0,2.0,4.0,4.0,5.0,5.0,2.0,4.0,4.0,5.0,4.0,2.0,5.0,5.0,5.0,2.0,5.0,2.0,5.0,5.0,5.0,5.0,6.0,6.0,5.0,5.0,6.0,6.0,5.0,6.0,6.0,4.0,5.0,2.0,5.0,4.0,5.0,4.0,6.0,5.0,1.0,Distressed and hopeless over the US federal government response. But I'm proud of NM's governor's response,6.0,6.0,6.0,6.0,6.0,6.0,6.0,6.0,6.0,6.0,4.0,4.0,5.0,5.0,4.0,6.0,4.0,6.0,6.0,4.0,2.0,5.0,6.0,4.0,5.0,5.0,Hearing from health officials is more helpful and reassuring than hearing from the White House,3.0,3.0,2.0,4.0,4.0,5.0,My feelings of general security are more anxious. But I'm trying to just keep going.,3.4,3.333333,3.333333,3.333333,4.333333,5.0,5.0,6.0
72353,514,2020-04-01 16:25:30,EN,27,Female,"Some College, short continuing education or equivalent",College degree,Student,United States,no,Illinois,Single,0.0,Yes,Isolated,2.0,0.0,,Program D,No,2.0,2.0,4.0,4.0,3.0,1.0,4.0,4.0,2.0,3.0,3.0,5.0,5.0,4.0,7.0,3.0,6.0,5.0,4.0,7.0,1.0,6.0,6.0,6.0,6.0,6.0,0.0,5.0,5.0,6.0,1.0,3.0,4.0,6.0,6.0,4.0,2.0,1.0,6.0,6.0,5.0,4.0,4.0,6.0,6.0,6.0,3.0,4.0,6.0,6.0,99.0,6.0,5.0,6.0,6.0,4.0,99.0,6.0,6.0,5.0,6.0,6.0,5.0,5.0,6.0,3.0,6.0,4.0,6.0,1.0,6.0,99.0,,6.0,5.0,3.0,5.0,6.0,4.0,5.0,5.0,5.0,6.0,4.0,6.0,5.0,3.0,3.0,3.0,6.0,6.0,5.0,4.0,6.0,5.0,5.0,6.0,6.0,5.0,,3.0,4.0,4.0,3.0,3.0,2.0,,2.3,4.333333,5.0,1.333333,5.0,5.0,4.666667,5.0
72377,604,2020-04-02 16:22:00,EN,18,Female,Up to 12 years of school,College degree,Not employed,United States,no,,Single,0.0,Yes,Isolated,2.0,0.0,,Program D,No,2.0,5.0,3.0,4.0,2.0,4.0,4.0,3.0,4.0,1.0,5.0,3.0,4.0,2.0,6.0,7.0,5.0,7.0,10.0,10.0,8.0,3.0,6.0,5.0,3.0,5.0,3.0,,,,,,,,,,,,,,,,,,,,,,,,,,,,,,,,,,,,,,,,,,,,,,,,,,,,,,,,,,,,,,,,,,,,,,,,,,,,,,,,,3.0,4.0,,,,,,
72384,752,2020-04-01 16:22:30,EN,34,Female,"College degree, bachelor, master",PhD/Doctorate,Student,United States,yes,California,Married/cohabiting,0.0,Yes,Isolated,1.0,0.0,,Program D,No,4.0,2.0,4.0,4.0,3.0,2.0,4.0,4.0,4.0,3.0,3.0,3.0,3.0,7.0,8.0,6.0,5.0,6.0,8.0,7.0,7.0,5.0,6.0,5.0,6.0,5.0,5.0,6.0,6.0,5.0,4.0,5.0,6.0,4.0,6.0,3.0,4.0,2.0,4.0,4.0,5.0,5.0,4.0,5.0,5.0,5.0,4.0,4.0,1.0,3.0,99.0,3.0,3.0,3.0,5.0,2.0,99.0,4.0,4.0,6.0,4.0,6.0,2.0,2.0,6.0,3.0,2.0,2.0,5.0,3.0,4.0,2.0,,6.0,5.0,6.0,6.0,6.0,6.0,6.0,6.0,6.0,6.0,5.0,4.0,6.0,4.0,4.0,6.0,1.0,1.0,5.0,4.0,5.0,5.0,5.0,6.0,6.0,5.0,,5.0,4.0,6.0,6.0,6.0,2.0,,2.8,3.0,4.666667,3.0,4.666667,4.333333,4.0,5.9
72403,1141,2020-04-01 16:25:53,EN,66,Female,"College degree, bachelor, master",Up to 12 years of school,Retired,United States,no,New York,Married/cohabiting,0.0,Not sure,Isolated,2.0,0.0,,Program D,No,1.0,1.0,2.0,5.0,3.0,1.0,4.0,4.0,3.0,1.0,1.0,1.0,1.0,6.0,8.0,7.0,7.0,7.0,8.0,7.0,7.0,6.0,6.0,5.0,5.0,5.0,4.0,6.0,5.0,5.0,1.0,5.0,6.0,2.0,2.0,6.0,6.0,6.0,1.0,6.0,4.0,6.0,5.0,5.0,5.0,6.0,2.0,5.0,4.0,99.0,99.0,99.0,1.0,2.0,99.0,2.0,99.0,5.0,1.0,3.0,3.0,4.0,99.0,2.0,1.0,1.0,3.0,2.0,5.0,1.0,5.0,1.0,,5.0,5.0,5.0,5.0,5.0,5.0,5.0,5.0,5.0,5.0,4.0,6.0,5.0,1.0,5.0,5.0,1.0,1.0,5.0,3.0,1.0,5.0,1.0,1.0,1.0,4.0,Seeing neighbors and other people outside.,3.0,2.0,2.0,2.0,5.0,3.0,,1.7,1.0,1.666667,6.0,5.333333,4.0,5.333333,5.0
72404,734,2020-04-01 16:18:49,EN,33,Male,PhD/Doctorate,Some College or equivalent,Full time employed,United States,no,MN,Married/cohabiting,2.0,Yes,Isolated,3.0,1.0,,Program D,Not sure,2.0,2.0,5.0,4.0,3.0,1.0,4.0,2.0,3.0,3.0,1.0,2.0,1.0,4.0,9.0,3.0,6.0,3.0,6.0,9.0,,4.0,5.0,5.0,4.0,4.0,0.0,6.0,6.0,6.0,2.0,2.0,5.0,2.0,2.0,6.0,4.0,4.0,2.0,6.0,6.0,6.0,2.0,5.0,5.0,4.0,5.0,6.0,2.0,1.0,1.0,1.0,1.0,1.0,1.0,5.0,3.0,3.0,3.0,4.0,6.0,5.0,1.0,1.0,1.0,2.0,1.0,1.0,1.0,1.0,2.0,1.0,,6.0,6.0,6.0,6.0,6.0,6.0,6.0,6.0,6.0,6.0,4.0,4.0,4.0,1.0,4.0,4.0,6.0,4.0,5.0,3.0,4.0,3.0,2.0,6.0,2.0,2.0,,6.0,5.0,5.0,4.0,6.0,1.0,,2.7,1.333333,1.666667,4.333333,6.0,5.0,4.0,6.0
72415,2582,2020-04-01 16:47:14,EN,33,Male,"Some College, short continuing education or equivalent",Up to 12 years of school,Full time employed,United States,no,Colorado,Single,0.0,Yes,Isolated,4.0,0.0,,Program D,Yes,4.0,4.0,4.0,4.0,2.0,5.0,3.0,3.0,4.0,5.0,5.0,5.0,4.0,7.0,8.0,4.0,2.0,8.0,2.0,8.0,5.0,4.0,5.0,4.0,6.0,6.0,3.0,6.0,6.0,6.0,1.0,3.0,2.0,6.0,4.0,4.0,5.0,2.0,4.0,6.0,6.0,6.0,2.0,6.0,6.0,4.0,4.0,5.0,5.0,99.0,99.0,5.0,5.0,6.0,99.0,1.0,99.0,3.0,4.0,5.0,5.0,5.0,99.0,5.0,5.0,6.0,2.0,4.0,2.0,4.0,5.0,2.0,,4.0,6.0,4.0,4.0,5.0,4.0,4.0,4.0,4.0,6.0,4.0,4.0,4.0,2.0,4.0,4.0,5.0,4.0,5.0,4.0,4.0,3.0,2.0,5.0,1.0,5.0,,2.0,4.0,4.0,2.0,2.0,4.0,,3.8,4.666667,4.333333,3.333333,6.0,5.666667,4.0,4.5
72419,268,2020-04-02 16:08:07,EN,43,Female,"Some College, short continuing education or equivalent",Some College or equivalent,,United States,no,California,Married/cohabiting,3.0,Yes,Isolated,1.0,1.0,,,,,,,,,,,,,,,,,,,,,,,,,,,,,,,,,,,,,,,,,,,,,,,,,,,,,,,,,,,,,,,,,,,,,,,,,,,,,,,,,,,,,,,,,,,,,,,,,,,,,,,,,,,,,,,,,,,,,,
72426,1797,2020-04-01 16:33:06,EN,41,Female,"College degree, bachelor, master",Some College or equivalent,,United States,no,WA,Single,0.0,Yes,Isolated,1.0,0.0,,,,3.0,5.0,4.0,4.0,2.0,2.0,5.0,3.0,4.0,3.0,3.0,3.0,4.0,2.0,8.0,0.0,0.0,0.0,0.0,8.0,0.0,6.0,6.0,6.0,6.0,6.0,0.0,4.0,5.0,5.0,2.0,4.0,,5.0,2.0,5.0,4.0,4.0,4.0,4.0,6.0,6.0,2.0,5.0,5.0,5.0,2.0,5.0,6.0,99.0,99.0,5.0,3.0,3.0,99.0,1.0,99.0,2.0,5.0,5.0,6.0,5.0,99.0,2.0,2.0,2.0,3.0,2.0,3.0,2.0,5.0,5.0,,5.0,5.0,5.0,5.0,5.0,5.0,5.0,5.0,5.0,5.0,2.0,2.0,5.0,2.0,5.0,4.0,2.0,1.0,5.0,4.0,5.0,5.0,2.0,5.0,2.0,4.0,,2.0,5.0,5.0,4.0,5.0,2.0,,3.1,3.333333,3.0,3.666667,5.333333,5.0,5.0,5.0
72432,503,2020-04-02 16:09:09,EN,25,Female,"College degree, bachelor, master",Some College or equivalent,Full time employed,United States,no,MA,Single,0.0,Yes,Life carries on with minor changes,1.0,0.0,Program A,,No,3.0,2.0,2.0,3.0,3.0,3.0,3.0,3.0,2.0,3.0,3.0,2.0,4.0,2.0,6.0,2.0,5.0,5.0,7.0,6.0,5.0,4.0,6.0,4.0,2.0,3.0,4.0,6.0,5.0,5.0,5.0,1.0,2.0,5.0,5.0,3.0,5.0,4.0,3.0,4.0,4.0,5.0,2.0,6.0,6.0,5.0,4.0,5.0,,,,,,,,,,,,,,,,,,,,,,,,,,,,,,,,,,,,,,,,,,,,,,,,,,,,,,,,,,,,2.7,3.0,4.666667,4.333333,4.333333,5.666667,4.333333,
72446,1059,2020-04-01 16:16:21,EN,33,Male,PhD/Doctorate,PhD/Doctorate,Full time employed,United States,no,Massachusetts,Single,0.0,Yes,Isolated,1.0,0.0,,Program C,No,3.0,3.0,5.0,3.0,2.0,3.0,2.0,3.0,3.0,3.0,4.0,2.0,5.0,7.0,9.0,4.0,0.0,8.0,6.0,9.0,2.0,2.0,4.0,3.0,5.0,6.0,1.0,6.0,5.0,5.0,1.0,2.0,1.0,5.0,2.0,4.0,3.0,3.0,6.0,4.0,4.0,3.0,4.0,2.0,4.0,5.0,2.0,5.0,1.0,4.0,99.0,1.0,2.0,2.0,99.0,5.0,99.0,4.0,2.0,4.0,5.0,5.0,1.0,5.0,1.0,5.0,4.0,1.0,1.0,1.0,3.0,1.0,governments (US and others) using coronavirus an excuse to enact far right policies| knock-on effects further increasing inequities,6.0,4.0,5.0,5.0,6.0,5.0,6.0,5.0,5.0,5.0,3.0,4.0,5.0,2.0,4.0,1.0,2.0,2.0,2.0,5.0,2.0,2.0,5.0,4.0,1.0,4.0,,4.0,1.0,1.0,1.0,4.0,4.0,"I don't like my flatmate, and now we're at home together all day. I'm constantly annoyed as hell by their mere presence",3.4,3.666667,3.333333,2.333333,3.666667,3.0,5.0,5.2
72475,1537,2020-04-01 16:19:53,EN,56,Female,"Some College, short continuing education or equivalent",Some College or equivalent,Full time employed,United States,no,Ashington,Married/cohabiting,0.0,Yes,Life carries on with minor changes,,,,Program C,No,2.0,2.0,5.0,4.0,4.0,2.0,5.0,2.0,1.0,2.0,1.0,3.0,4.0,8.0,9.0,5.0,9.0,8.0,8.0,8.0,9.0,6.0,6.0,6.0,6.0,6.0,3.0,6.0,6.0,6.0,1.0,4.0,6.0,2.0,2.0,5.0,6.0,4.0,3.0,4.0,4.0,3.0,2.0,5.0,6.0,5.0,2.0,5.0,1.0,4.0,99.0,1.0,2.0,2.0,4.0,1.0,99.0,5.0,2.0,6.0,5.0,6.0,5.0,1.0,5.0,3.0,4.0,1.0,4.0,1.0,6.0,3.0,,6.0,5.0,6.0,6.0,6.0,6.0,6.0,6.0,6.0,6.0,3.0,4.0,6.0,4.0,4.0,6.0,1.0,1.0,4.0,5.0,5.0,5.0,4.0,3.0,5.0,5.0,,6.0,6.0,6.0,6.0,6.0,6.0,,2.3,2.666667,2.0,4.666667,3.666667,5.333333,5.0,5.9
72481,684,2020-04-01 16:04:56,EN,38,Female,"College degree, bachelor, master",College degree,Full time employed,United States,no,Massachusetts,Married/cohabiting,0.0,Yes,Isolated,1.0,0.0,Program A,,No,4.0,3.0,4.0,3.0,2.0,4.0,4.0,3.0,5.0,4.0,3.0,4.0,4.0,8.0,10.0,7.0,4.0,6.0,10.0,10.0,2.0,6.0,6.0,6.0,5.0,6.0,0.0,6.0,6.0,6.0,5.0,2.0,6.0,6.0,4.0,5.0,6.0,6.0,1.0,5.0,6.0,6.0,5.0,5.0,5.0,4.0,3.0,6.0,6.0,6.0,99.0,5.0,2.0,6.0,1.0,2.0,99.0,4.0,5.0,5.0,6.0,6.0,6.0,6.0,2.0,6.0,6.0,6.0,3.0,4.0,6.0,6.0,The inept Trump administration. I only hope he dies from this. It will comfort many.,6.0,6.0,,6.0,6.0,6.0,6.0,6.0,6.0,6.0,1.0,6.0,6.0,4.0,6.0,5.0,2.0,5.0,6.0,3.0,4.0,5.0,2.0,5.0,1.0,2.0,,5.0,6.0,,5.0,6.0,1.0,I live in a studio with my husband. We are educated and I have a medical background. I am enraged and stressed more Americans do not take this seriously. I believe there should be mandatory home confinement. Social distancing is fruitless. Our government is a national embarrassment. My only wish is many Trump voters suffer for putting us through this horrific president.,3.6,3.666667,4.0,6.0,5.666667,4.0,4.666667,6.0
72482,5020,2020-04-01 17:17:10,EN,27,Male,"College degree, bachelor, master",College degree,Not employed,United States,no,Connecticut,Single,0.0,Yes,Isolated,2.0,0.0,,Program D,No,2.0,3.0,4.0,4.0,3.0,4.0,3.0,3.0,4.0,3.0,3.0,2.0,3.0,6.0,8.0,3.0,9.0,8.0,3.0,6.0,2.0,5.0,6.0,4.0,6.0,5.0,3.0,5.0,5.0,5.0,1.0,1.0,5.0,6.0,5.0,4.0,5.0,5.0,2.0,4.0,5.0,4.0,3.0,4.0,5.0,5.0,3.0,4.0,6.0,5.0,99.0,6.0,2.0,4.0,99.0,5.0,99.0,5.0,3.0,6.0,6.0,5.0,2.0,2.0,1.0,4.0,5.0,3.0,5.0,2.0,3.0,6.0,,6.0,6.0,6.0,6.0,6.0,6.0,6.0,6.0,6.0,6.0,5.0,6.0,6.0,5.0,5.0,5.0,1.0,2.0,4.0,5.0,6.0,3.0,6.0,5.0,3.0,5.0,,1.0,5.0,5.0,5.0,4.0,2.0,,3.1,2.666667,4.666667,5.0,4.333333,4.333333,4.333333,6.0
72497,593,2020-04-01 16:00:49,EN,38,Female,"College degree, bachelor, master",Some College or equivalent,Full time employed,United States,no,Fl,Married/cohabiting,1.0,Yes,Isolated,3.0,1.0,Program A,,No,3.0,3.0,4.0,4.0,3.0,1.0,3.0,3.0,4.0,2.0,1.0,1.0,3.0,5.0,8.0,3.0,5.0,5.0,5.0,9.0,2.0,6.0,6.0,6.0,6.0,6.0,0.0,6.0,5.0,5.0,1.0,1.0,3.0,4.0,2.0,6.0,3.0,2.0,4.0,5.0,4.0,5.0,2.0,4.0,5.0,5.0,2.0,5.0,1.0,5.0,6.0,1.0,5.0,2.0,1.0,5.0,5.0,5.0,4.0,6.0,6.0,5.0,5.0,6.0,2.0,4.0,4.0,4.0,4.0,5.0,6.0,1.0,,6.0,6.0,6.0,6.0,6.0,6.0,6.0,6.0,5.0,6.0,4.0,5.0,5.0,4.0,5.0,4.0,1.0,1.0,4.0,2.0,4.0,4.0,4.0,3.0,1.0,3.0,,3.0,6.0,3.0,5.0,6.0,2.0,,2.8,1.666667,2.333333,2.666667,4.666667,4.666667,5.0,5.9
72501,198,2020-04-02 15:53:59,PL,34,Female,"Some College, short continuing education or equivalent",Up to 12 years of school,Not employed,United States,yes,,Married/cohabiting,3.0,No,Isolated,1.0,3.0,,Program D,No,4.0,4.0,4.0,2.0,3.0,4.0,3.0,3.0,4.0,4.0,3.0,3.0,4.0,,,,,,,,,,,,,,,,,,,,,,,,,,,,,,,,,,,,,,,,,,,,,,,,,,,,,,,,,,,,,,,,,,,,,,,,,,,,,,,,,,,,,,,,,,,,,,,3.7,3.333333,,,,,,
72502,907,2020-04-01 16:05:27,EN,57,Female,"Some College, short continuing education or equivalent",Up to 6 years of school,Retired,United States,no,Florida,Married/cohabiting,1.0,Yes,Isolated,1.0,0.0,,Program D,No,3.0,4.0,5.0,3.0,3.0,2.0,3.0,3.0,5.0,4.0,5.0,3.0,3.0,4.0,8.0,1.0,0.0,5.0,6.0,2.0,0.0,6.0,6.0,5.0,6.0,6.0,0.0,5.0,5.0,5.0,1.0,1.0,2.0,6.0,6.0,4.0,4.0,5.0,5.0,4.0,6.0,4.0,3.0,3.0,5.0,6.0,5.0,5.0,4.0,99.0,99.0,99.0,4.0,2.0,1.0,4.0,6.0,3.0,5.0,6.0,6.0,6.0,99.0,99.0,2.0,6.0,2.0,4.0,5.0,1.0,4.0,1.0,,5.0,4.0,4.0,2.0,5.0,2.0,4.0,5.0,4.0,5.0,1.0,1.0,5.0,1.0,4.0,4.0,1.0,2.0,5.0,5.0,6.0,1.0,1.0,2.0,1.0,1.0,,1.0,5.0,4.0,2.0,3.0,2.0,President Trump and his lies,3.5,3.666667,5.0,3.666667,4.666667,4.0,4.333333,4.0
72543,1020,2020-04-01 16:02:30,EN,62,Female,"College degree, bachelor, master",College degree,Self-employed,United States,no,Ga,Divorced/widowed,0.0,No,Isolated,0.0,0.0,Program B,,No,3.0,2.0,1.0,5.0,3.0,1.0,5.0,4.0,1.0,1.0,3.0,1.0,3.0,7.0,10.0,1.0,9.0,9.0,4.0,8.0,1.0,6.0,6.0,6.0,6.0,6.0,0.0,6.0,6.0,6.0,2.0,3.0,6.0,5.0,4.0,6.0,5.0,6.0,4.0,6.0,6.0,6.0,2.0,5.0,5.0,5.0,3.0,6.0,5.0,3.0,99.0,4.0,4.0,5.0,3.0,99.0,99.0,5.0,3.0,99.0,6.0,6.0,4.0,4.0,3.0,4.0,6.0,5.0,3.0,3.0,4.0,3.0,,6.0,6.0,6.0,6.0,6.0,6.0,6.0,6.0,6.0,6.0,1.0,5.0,5.0,6.0,6.0,5.0,6.0,5.0,5.0,3.0,5.0,1.0,6.0,6.0,5.0,2.0,,1.0,4.0,3.0,6.0,5.0,5.0,,1.6,2.333333,3.333333,4.666667,6.0,5.0,5.0,6.0
72554,1030,2020-04-01 16:01:28,EN,42,Male,"Some College, short continuing education or equivalent",College degree,Full time employed,United States,no,California,Single,2.0,Yes,Life carries on with minor changes,1.0,1.0,Program A,,No,3.0,3.0,3.0,4.0,4.0,2.0,4.0,3.0,3.0,2.0,2.0,2.0,3.0,6.0,9.0,1.0,5.0,6.0,0.0,8.0,2.0,5.0,6.0,6.0,6.0,6.0,2.0,4.0,6.0,6.0,2.0,3.0,5.0,3.0,2.0,5.0,5.0,4.0,3.0,6.0,6.0,5.0,4.0,5.0,6.0,4.0,4.0,5.0,5.0,6.0,4.0,6.0,2.0,3.0,99.0,4.0,5.0,4.0,4.0,6.0,6.0,6.0,4.0,5.0,2.0,3.0,5.0,6.0,6.0,4.0,5.0,4.0,,6.0,5.0,5.0,6.0,5.0,6.0,5.0,6.0,6.0,5.0,4.0,5.0,5.0,4.0,5.0,5.0,4.0,4.0,5.0,6.0,5.0,6.0,4.0,4.0,4.0,5.0,,5.0,6.0,6.0,4.0,5.0,2.0,,2.5,2.333333,2.333333,4.333333,5.666667,4.666667,4.0,5.5
72556,505,2020-04-01 15:51:47,EN,42,Female,"College degree, bachelor, master",Some College or equivalent,Full time employed,United States,no,Massachusetts,Married/cohabiting,2.0,No,Isolated,2.0,2.0,Program A,,No,3.0,5.0,4.0,2.0,2.0,4.0,3.0,3.0,5.0,2.0,2.0,2.0,4.0,3.0,4.0,4.0,7.0,7.0,7.0,8.0,4.0,5.0,6.0,5.0,6.0,5.0,0.0,4.0,6.0,6.0,3.0,2.0,5.0,2.0,2.0,5.0,5.0,4.0,3.0,5.0,5.0,4.0,1.0,4.0,5.0,5.0,2.0,5.0,6.0,6.0,6.0,6.0,2.0,1.0,1.0,2.0,5.0,6.0,2.0,5.0,6.0,6.0,2.0,2.0,2.0,2.0,2.0,4.0,2.0,3.0,6.0,1.0,,5.0,4.0,5.0,5.0,5.0,5.0,5.0,5.0,5.0,4.0,2.0,1.0,6.0,1.0,3.0,3.0,2.0,2.0,6.0,2.0,2.0,2.0,5.0,2.0,1.0,2.0,,3.0,5.0,5.0,5.0,5.0,2.0,,3.7,2.666667,2.0,4.333333,4.666667,5.0,5.0,4.8
72572,677,2020-04-02 15:52:36,SME,51,Female,PhD/Doctorate,,Part time employed,United States,yes,California,Married/cohabiting,1.0,Yes,Isolated,3.0,0.0,Program B,,Not sure,3.0,3.0,3.0,4.0,4.0,3.0,4.0,2.0,3.0,3.0,3.0,2.0,3.0,5.0,8.0,2.0,8.0,7.0,10.0,10.0,4.0,,5.0,5.0,5.0,6.0,4.0,,,,,,,,,,,,,,,,,,,,,,,,,,,,,,,,,,,,,,,,,,,,,,,,,,,,,,,,,,,,,,,,,,,,,,,,,,,,,,,,,2.8,2.666667,,,,,,
72581,1554,2020-04-01 16:06:06,EN,40,Female,PhD/Doctorate,PhD/Doctorate,Self-employed,United States,no,Massachusetts,Married/cohabiting,3.0,Yes,Isolated,1.0,3.0,Program B,,Yes,3.0,1.0,1.0,5.0,3.0,4.0,1.0,3.0,5.0,5.0,1.0,1.0,1.0,7.0,9.0,3.0,5.0,7.0,5.0,9.0,0.0,5.0,6.0,5.0,6.0,6.0,1.0,5.0,5.0,5.0,3.0,2.0,2.0,6.0,6.0,2.0,3.0,2.0,5.0,6.0,6.0,5.0,5.0,6.0,5.0,4.0,5.0,4.0,1.0,5.0,6.0,99.0,3.0,3.0,4.0,2.0,6.0,5.0,3.0,6.0,6.0,5.0,5.0,1.0,4.0,1.0,5.0,4.0,2.0,3.0,5.0,99.0,,6.0,6.0,6.0,6.0,6.0,6.0,6.0,6.0,6.0,6.0,2.0,2.0,5.0,3.0,2.0,5.0,4.0,2.0,4.0,3.0,1.0,5.0,3.0,4.0,1.0,2.0,,1.0,6.0,4.0,4.0,4.0,1.0,Alone time is very difficult to secure when trapped with three children and a spouse working from home! Also home schooling with instructions/assignments from school teachers and trying to work and meet online is stressful and difficult. Not really succeeding in doing what's expected in terms of school. Watching less TV/relaxing less since I don't have time when kids are at school or all asleep. But cleaning and cooking more to keep myself occupied/awake when the kids are up and about.,3.1,1.0,5.666667,2.333333,5.666667,4.333333,3.333333,6.0
72584,1235,2020-04-01 16:00:30,EN,74,Female,PhD/Doctorate,Up to 12 years of school,Retired,United States,no,IN,Divorced/widowed,0.0,Yes,Life carries on with minor changes,1.0,0.0,Program A,,No,1.0,2.0,2.0,,4.0,1.0,3.0,2.0,1.0,1.0,2.0,1.0,2.0,8.0,9.0,5.0,4.0,9.0,7.0,10.0,2.0,5.0,5.0,5.0,5.0,5.0,0.0,6.0,5.0,6.0,1.0,5.0,5.0,5.0,4.0,5.0,4.0,2.0,5.0,4.0,4.0,2.0,2.0,5.0,6.0,5.0,4.0,6.0,2.0,4.0,1.0,1.0,4.0,4.0,1.0,2.0,1.0,4.0,4.0,5.0,3.0,4.0,3.0,5.0,1.0,4.0,5.0,2.0,5.0,5.0,3.0,1.0,,6.0,5.0,6.0,6.0,6.0,6.0,6.0,6.0,5.0,6.0,2.0,4.0,4.0,3.0,4.0,5.0,1.0,1.0,4.0,4.0,4.0,5.0,4.0,5.0,1.0,2.0,,2.0,4.0,3.0,4.0,4.0,4.0,Now I have time to do the things I've been precasting about.,1.888889,1.666667,3.666667,2.666667,3.333333,5.333333,4.666667,5.8
72586,1087,2020-04-01 15:57:43,EN,38,Female,PhD/Doctorate,College degree,Full time employed,United States,no,California,Married/cohabiting,1.0,Yes,Isolated,1.0,0.0,Program A,,Yes,3.0,5.0,5.0,3.0,2.0,2.0,3.0,2.0,4.0,3.0,1.0,1.0,2.0,4.0,7.0,3.0,3.0,5.0,3.0,7.0,1.0,5.0,4.0,5.0,5.0,6.0,0.0,5.0,5.0,5.0,1.0,4.0,1.0,3.0,4.0,4.0,3.0,2.0,6.0,5.0,6.0,6.0,3.0,5.0,5.0,4.0,4.0,5.0,4.0,2.0,99.0,6.0,2.0,5.0,3.0,2.0,99.0,5.0,2.0,1.0,4.0,2.0,1.0,1.0,1.0,2.0,2.0,2.0,2.0,2.0,6.0,1.0,,6.0,6.0,6.0,6.0,6.0,6.0,6.0,6.0,6.0,6.0,2.0,2.0,5.0,3.0,2.0,4.0,6.0,2.0,5.0,4.0,2.0,4.0,2.0,5.0,4.0,3.0,,2.0,2.0,2.0,4.0,2.0,5.0,My entire field (higher education) may permanently change in ways that will make it even more difficult for me to find work suitable to my degree.,3.6,1.333333,3.333333,2.0,5.666667,4.666667,4.0,6.0
72598,619,2020-04-01 15:47:38,EN,37,Female,"College degree, bachelor, master",Up to 12 years of school,Full time employed,United States,no,Florida,Single,1.0,Yes,Life carries on with minor changes,0.0,1.0,Program A,,No,3.0,2.0,3.0,4.0,4.0,2.0,4.0,4.0,2.0,2.0,3.0,3.0,4.0,4.0,7.0,3.0,7.0,5.0,8.0,8.0,4.0,5.0,6.0,5.0,6.0,6.0,1.0,6.0,5.0,4.0,3.0,3.0,5.0,2.0,4.0,6.0,4.0,4.0,2.0,5.0,5.0,4.0,2.0,5.0,5.0,5.0,2.0,6.0,2.0,5.0,5.0,1.0,3.0,5.0,1.0,1.0,3.0,4.0,5.0,5.0,5.0,2.0,5.0,4.0,1.0,5.0,4.0,4.0,3.0,2.0,4.0,1.0,,6.0,5.0,6.0,6.0,6.0,6.0,6.0,6.0,5.0,6.0,5.0,5.0,6.0,6.0,5.0,5.0,1.0,1.0,5.0,6.0,6.0,6.0,6.0,2.0,1.0,5.0,,6.0,6.0,1.0,4.0,6.0,2.0,,2.2,3.333333,2.333333,4.333333,4.666667,5.0,5.333333,5.8
72652,381,2020-04-02 15:36:42,BG,43,Female,"Some College, short continuing education or equivalent",Some College or equivalent,Student,United States,yes,New Jersey,Other or would rather not say,2.0,Yes,Isolated,0.0,1.0,Program A,,Yes,2.0,4.0,2.0,4.0,2.0,3.0,4.0,3.0,3.0,3.0,2.0,3.0,3.0,0.0,1.0,2.0,5.0,2.0,1.0,4.0,5.0,5.0,5.0,5.0,6.0,6.0,3.0,,,,,,,,,,,,,,,,,,,,,,,,,,,,,,,,,,,,,,,,,,,,,,,,,,,,,,,,,,,,,,,,,,,,,,,,,,,,,,,,,2.8,2.666667,,,,,,
72699,1368,2020-04-01 15:46:46,EN,42,Female,"Some College, short continuing education or equivalent",Some College or equivalent,Full time employed,United States,no,California,Married/cohabiting,1.0,Not sure,Isolated,1.0,1.0,Program A,,No,3.0,3.0,4.0,3.0,3.0,3.0,3.0,2.0,3.0,3.0,3.0,3.0,4.0,5.0,8.0,2.0,6.0,6.0,5.0,6.0,0.0,4.0,4.0,4.0,6.0,5.0,1.0,3.0,3.0,5.0,3.0,3.0,3.0,5.0,5.0,3.0,5.0,5.0,3.0,3.0,3.0,5.0,4.0,3.0,4.0,3.0,5.0,3.0,1.0,5.0,3.0,2.0,5.0,3.0,1.0,4.0,5.0,5.0,3.0,4.0,4.0,4.0,5.0,3.0,4.0,4.0,4.0,5.0,4.0,4.0,5.0,1.0,,5.0,4.0,5.0,4.0,5.0,5.0,5.0,5.0,4.0,5.0,1.0,2.0,4.0,5.0,4.0,1.0,1.0,4.0,5.0,3.0,1.0,1.0,2.0,1.0,1.0,2.0,,3.0,2.0,3.0,5.0,5.0,3.0,,3.2,3.333333,4.666667,4.666667,3.666667,3.333333,2.666667,4.7
72879,951,2020-04-01 15:19:41,EN,21,Female,"College degree, bachelor, master",Some College or equivalent,Full time employed,United States,no,Idaho,Married/cohabiting,0.0,Yes,Isolated,2.0,0.0,,Program D,No,3.0,4.0,5.0,3.0,3.0,4.0,3.0,2.0,5.0,4.0,3.0,2.0,5.0,5.0,8.0,3.0,3.0,5.0,3.0,4.0,3.0,5.0,5.0,6.0,6.0,6.0,3.0,6.0,5.0,5.0,4.0,2.0,4.0,6.0,3.0,4.0,5.0,4.0,3.0,4.0,6.0,5.0,4.0,3.0,5.0,5.0,3.0,6.0,2.0,5.0,99.0,4.0,2.0,5.0,1.0,3.0,99.0,5.0,4.0,5.0,5.0,5.0,4.0,5.0,2.0,6.0,5.0,4.0,2.0,2.0,6.0,5.0,,6.0,5.0,5.0,5.0,6.0,5.0,6.0,6.0,6.0,6.0,3.0,3.0,6.0,3.0,5.0,3.0,2.0,2.0,5.0,5.0,4.0,4.0,4.0,5.0,1.0,4.0,,1.0,3.0,4.0,2.0,2.0,2.0,,3.8,3.333333,4.0,4.333333,5.0,3.666667,5.0,5.6
72880,777,2020-04-01 15:16:42,EN,44,Male,"College degree, bachelor, master",Some College or equivalent,Full time employed,United States,no,Washington,Other or would rather not say,,Yes,Isolated,1.0,0.0,,Program D,Not sure,3.0,3.0,3.0,4.0,3.0,3.0,4.0,3.0,3.0,3.0,2.0,2.0,3.0,7.0,9.0,3.0,4.0,7.0,3.0,4.0,1.0,5.0,6.0,5.0,6.0,6.0,0.0,6.0,5.0,5.0,1.0,4.0,6.0,5.0,4.0,5.0,6.0,6.0,2.0,6.0,6.0,6.0,2.0,5.0,6.0,4.0,4.0,5.0,1.0,4.0,3.0,2.0,4.0,5.0,1.0,2.0,99.0,6.0,5.0,6.0,6.0,5.0,4.0,4.0,1.0,2.0,4.0,3.0,4.0,2.0,5.0,6.0,,6.0,6.0,6.0,6.0,6.0,6.0,6.0,6.0,6.0,6.0,2.0,5.0,6.0,4.0,6.0,5.0,5.0,5.0,5.0,5.0,6.0,4.0,4.0,6.0,4.0,4.0,,2.0,5.0,5.0,5.0,2.0,2.0,,2.8,2.333333,3.666667,5.666667,6.0,5.333333,4.0,6.0
72881,702,2020-04-01 15:15:19,EN,37,Female,"Some College, short continuing education or equivalent",College degree,Full time employed,United States,no,IL,Married/cohabiting,2.0,No,Isolated,1.0,2.0,,Program D,No,4.0,4.0,5.0,3.0,3.0,3.0,3.0,3.0,5.0,4.0,3.0,5.0,5.0,5.0,8.0,2.0,4.0,7.0,4.0,5.0,1.0,6.0,6.0,1.0,1.0,5.0,2.0,5.0,6.0,5.0,3.0,2.0,4.0,4.0,4.0,3.0,6.0,6.0,2.0,5.0,6.0,4.0,4.0,4.0,4.0,5.0,2.0,5.0,6.0,6.0,6.0,5.0,2.0,6.0,1.0,5.0,6.0,6.0,5.0,6.0,6.0,5.0,6.0,5.0,6.0,5.0,3.0,5.0,3.0,3.0,6.0,1.0,,6.0,6.0,6.0,6.0,6.0,6.0,6.0,6.0,5.0,6.0,3.0,2.0,6.0,3.0,4.0,2.0,1.0,2.0,5.0,3.0,5.0,3.0,3.0,5.0,1.0,2.0,,4.0,3.0,3.0,4.0,2.0,1.0,,3.7,4.333333,4.0,5.666667,5.0,3.666667,5.0,5.9
72926,190,2020-04-02 15:01:06,EN,31,Male,PhD/Doctorate,Some College or equivalent,Full time employed,United States,yes,pa,,,,,,,,Program D,Yes,,,,,,,,,,,,,,,,,,,,,,,,,,,,,,,,,,,,,,,,,,,,,,,,,,,,,,,,,,,,,,,,,,,,,,,,,,,,,,,,,,,,,,,,,,,,,,,,,,,,,,,,,,,,,,,,,,,
72934,401,2020-04-02 15:04:07,EN,37,Male,PhD/Doctorate,Up to 12 years of school,Full time employed,United States,yes,Philadelphia,Other or would rather not say,0.0,No,Isolated,0.0,0.0,,Program D,No,2.0,1.0,3.0,3.0,4.0,2.0,4.0,3.0,3.0,2.0,3.0,2.0,3.0,7.0,8.0,4.0,4.0,5.0,0.0,5.0,1.0,4.0,5.0,4.0,4.0,6.0,2.0,4.0,4.0,4.0,4.0,4.0,4.0,,,,,,,,,,,,,,,,2.0,2.0,2.0,3.0,2.0,3.0,1.0,1.0,1.0,5.0,3.0,1.0,2.0,4.0,3.0,4.0,2.0,2.0,3.0,2.0,3.0,2.0,2.0,1.0,,,,,,,,,,,,,,,,,,,,,,,,,,,,,,,,,,,,2.3,2.666667,,,,,,
72948,1961,2020-04-02 15:27:44,EN,45,Male,"Some College, short continuing education or equivalent",Up to 12 years of school,Full time employed,United States,no,California,Single,0.0,Yes,Life carries on with minor changes,0.0,0.0,,Program D,No,2.0,2.0,2.0,5.0,4.0,3.0,4.0,3.0,2.0,2.0,2.0,2.0,2.0,5.0,8.0,4.0,3.0,5.0,6.0,8.0,6.0,2.0,5.0,5.0,5.0,6.0,4.0,5.0,5.0,5.0,1.0,3.0,4.0,6.0,1.0,5.0,5.0,3.0,4.0,6.0,5.0,5.0,3.0,6.0,5.0,5.0,2.0,5.0,2.0,4.0,99.0,2.0,4.0,2.0,1.0,99.0,99.0,6.0,5.0,5.0,5.0,4.0,5.0,3.0,2.0,2.0,6.0,4.0,4.0,2.0,2.0,99.0,Vulnerable and impoverished people,4.0,5.0,4.0,4.0,4.0,5.0,4.0,2.0,5.0,5.0,5.0,5.0,5.0,2.0,4.0,5.0,1.0,,5.0,6.0,4.0,4.0,6.0,3.0,6.0,5.0,,5.0,5.0,4.0,1.0,5.0,2.0,The lack of testing for the virus| the lack of safe housing/shelter for the homeless| lack of support for healthcare workers| the lack of a food and medicine delivery system if this crisis worsens| and the general hysteria of the public,2.1,2.0,3.0,3.666667,5.333333,5.0,5.0,4.2
72996,991,2020-04-01 15:04:44,EN,30,Female,"College degree, bachelor, master",College degree,Not employed,United States,yes,California,Married/cohabiting,0.0,Yes,Life carries on with minor changes,4.0,0.0,Program A,,No,3.0,4.0,5.0,3.0,3.0,3.0,2.0,2.0,4.0,3.0,1.0,2.0,4.0,4.0,7.0,1.0,2.0,5.0,0.0,7.0,1.0,5.0,6.0,6.0,6.0,6.0,0.0,4.0,6.0,5.0,2.0,1.0,2.0,4.0,5.0,4.0,4.0,3.0,5.0,4.0,6.0,5.0,2.0,4.0,5.0,5.0,5.0,5.0,6.0,5.0,4.0,6.0,2.0,2.0,1.0,6.0,5.0,6.0,2.0,99.0,99.0,99.0,1.0,1.0,3.0,1.0,2.0,1.0,5.0,2.0,6.0,99.0,,6.0,6.0,6.0,6.0,6.0,6.0,6.0,6.0,6.0,6.0,4.0,5.0,6.0,1.0,2.0,4.0,6.0,6.0,4.0,5.0,5.0,5.0,5.0,6.0,1.0,5.0,,1.0,5.0,5.0,3.0,4.0,2.0,,3.6,2.333333,4.0,3.0,5.0,4.666667,4.0,6.0
73008,661,2020-04-02 14:57:46,EN,45,Male,"College degree, bachelor, master",College degree,Full time employed,United States,no,Pennsylvania,Married/cohabiting,2.0,Yes,Isolated,1.0,1.0,,Program C,No,2.0,5.0,4.0,5.0,2.0,2.0,4.0,2.0,3.0,2.0,1.0,1.0,3.0,8.0,8.0,2.0,5.0,8.0,6.0,9.0,2.0,5.0,5.0,5.0,5.0,5.0,3.0,5.0,4.0,5.0,1.0,2.0,1.0,5.0,5.0,5.0,6.0,5.0,2.0,4.0,6.0,5.0,4.0,6.0,5.0,3.0,4.0,5.0,2.0,5.0,1.0,6.0,5.0,4.0,1.0,2.0,5.0,6.0,5.0,4.0,5.0,4.0,2.0,5.0,4.0,1.0,5.0,5.0,1.0,1.0,3.0,4.0,,,,,,,,,,,,,,,,,,,,,,,,,,,,,,,,,,,,2.9,1.666667,4.0,5.333333,5.0,4.666667,3.666667,
73118,563,2020-04-01 14:42:59,EN,55,Female,"College degree, bachelor, master",PhD/Doctorate,Full time employed,United States,yes,MA,Married/cohabiting,0.0,Yes,Isolated,3.0,0.0,,Program D,Yes,3.0,3.0,4.0,3.0,3.0,3.0,3.0,3.0,2.0,2.0,2.0,3.0,3.0,8.0,9.0,2.0,3.0,4.0,4.0,8.0,1.0,6.0,6.0,6.0,6.0,6.0,0.0,6.0,5.0,4.0,4.0,6.0,6.0,5.0,2.0,6.0,5.0,4.0,3.0,6.0,4.0,4.0,4.0,4.0,5.0,3.0,3.0,6.0,1.0,4.0,99.0,6.0,1.0,5.0,2.0,3.0,99.0,5.0,4.0,6.0,6.0,5.0,4.0,4.0,4.0,4.0,6.0,4.0,1.0,3.0,5.0,2.0,,6.0,6.0,6.0,6.0,6.0,6.0,6.0,6.0,6.0,6.0,4.0,5.0,5.0,1.0,5.0,4.0,5.0,5.0,5.0,4.0,6.0,3.0,3.0,2.0,4.0,4.0,,4.0,6.0,6.0,5.0,5.0,4.0,,2.9,2.666667,2.666667,4.333333,4.666667,4.0,4.333333,6.0
73160,343,2020-04-02 14:35:15,PL,34,Female,"Some College, short continuing education or equivalent",College degree,Full time employed,United States,yes,Connecticut,Married/cohabiting,3.0,Yes,Isolated,1.0,3.0,Program B,,,,,,,,,,,,,,,,,,,,,,,,,,,,,,,,,,,,,,,,,,,,,,,,,,,,,,,,,,,,,,,,,,,,,,,,,,,,,,,,,,,,,,,,,,,,,,,,,,,,,,,,,,,,,,,,,,,,,
73180,311,2020-04-02 14:32:24,EN,36,Female,Up to 12 years of school,College degree,Full time employed,United States,no,Oklahoma,Married/cohabiting,2.0,Yes,Life carries on with minor changes,1.0,2.0,Program B,,No,1.0,1.0,1.0,5.0,5.0,1.0,5.0,5.0,1.0,1.0,1.0,2.0,1.0,5.0,9.0,5.0,7.0,6.0,1.0,5.0,0.0,5.0,5.0,5.0,6.0,6.0,1.0,5.0,1.0,2.0,1.0,1.0,1.0,1.0,1.0,5.0,5.0,6.0,2.0,4.0,6.0,4.0,3.0,4.0,5.0,3.0,6.0,5.0,,,,,,,,,,,,,,,,,,,,,,,,,,,,,,,,,,,,,,,,,,,,,,,,,,,,,,,,,,,,1.0,1.333333,1.333333,5.333333,4.666667,4.333333,3.0,
73239,6368,2020-04-01 16:05:51,EN,44,Female,"College degree, bachelor, master",College degree,Full time employed,United States,yes,Ohio,Married/cohabiting,2.0,Yes,Isolated,1.0,2.0,,Program D,No,2.0,2.0,1.0,5.0,3.0,2.0,3.0,4.0,3.0,1.0,2.0,2.0,1.0,6.0,9.0,7.0,7.0,,8.0,8.0,3.0,2.0,3.0,4.0,2.0,5.0,3.0,5.0,6.0,6.0,2.0,3.0,1.0,2.0,2.0,5.0,5.0,2.0,5.0,4.0,6.0,6.0,1.0,5.0,6.0,3.0,3.0,3.0,4.0,1.0,2.0,3.0,5.0,2.0,2.0,4.0,2.0,6.0,2.0,2.0,3.0,6.0,1.0,1.0,2.0,2.0,4.0,2.0,2.0,1.0,2.0,4.0,"the president's lack of leadership and clear messege, most ppl owning guns",6.0,6.0,6.0,6.0,6.0,5.0,6.0,6.0,6.0,6.0,1.0,1.0,6.0,1.0,4.0,5.0,1.0,1.0,1.0,5.0,2.0,5.0,6.0,4.0,2.0,2.0,Following my state government's information and decisions. Gv'n DeWine and Dr. Amy Acton are rock stars. Good seasoned politicians and not showmen!,2.0,5.0,5.0,2.0,5.0,4.0,"I'm truly sorry to say this but the US government and esp. the president have not shown good, strong leadership in this situation. The message from the White House is weak and unclear. AND They could have hired a professional PR for these messages and the best experts for national TV conferences weekly, for example. Great job on the recent CARES bill though - for that - thank you.",2.0,1.666667,2.0,3.0,5.333333,5.666667,3.333333,5.9
73268,553,2020-04-01 14:26:22,EN,60,Female,"College degree, bachelor, master",Up to 12 years of school,Retired,United States,no,Massachusetts,Married/cohabiting,1.0,Yes,Life carries on with minor changes,3.0,0.0,Program A,,No,3.0,2.0,5.0,4.0,4.0,2.0,3.0,3.0,3.0,2.0,1.0,2.0,2.0,7.0,10.0,0.0,,,,3.0,,5.0,4.0,5.0,6.0,6.0,0.0,5.0,5.0,5.0,4.0,5.0,5.0,4.0,6.0,4.0,4.0,1.0,6.0,5.0,6.0,5.0,4.0,6.0,6.0,5.0,5.0,4.0,4.0,99.0,2.0,2.0,4.0,6.0,5.0,2.0,99.0,5.0,3.0,6.0,6.0,5.0,4.0,4.0,3.0,2.0,6.0,3.0,3.0,4.0,5.0,2.0,,6.0,6.0,6.0,5.0,6.0,6.0,5.0,6.0,5.0,6.0,3.0,2.0,2.0,2.0,2.0,2.0,5.0,5.0,5.0,4.0,2.0,3.0,4.0,5.0,5.0,3.0,,3.0,4.0,3.0,3.0,4.0,4.0,,2.7,1.666667,4.333333,2.0,5.333333,5.0,3.666667,5.7
73296,1178,2020-04-01 14:33:50,EN,29,Female,"Some College, short continuing education or equivalent",Up to 12 years of school,Not employed,United States,no,Oregon,Married/cohabiting,0.0,Yes,Life carries on with minor changes,1.0,0.0,,Program C,Not sure,3.0,2.0,5.0,3.0,2.0,3.0,2.0,3.0,3.0,4.0,2.0,3.0,4.0,2.0,6.0,0.0,2.0,1.0,5.0,8.0,0.0,6.0,5.0,5.0,6.0,6.0,0.0,2.0,5.0,5.0,6.0,1.0,3.0,3.0,3.0,5.0,4.0,5.0,4.0,4.0,5.0,3.0,3.0,4.0,5.0,4.0,4.0,4.0,99.0,99.0,99.0,99.0,5.0,6.0,99.0,1.0,99.0,5.0,5.0,6.0,6.0,5.0,99.0,5.0,3.0,4.0,6.0,5.0,5.0,3.0,6.0,5.0,,6.0,5.0,6.0,6.0,5.0,6.0,6.0,6.0,4.0,5.0,2.0,3.0,6.0,3.0,4.0,2.0,4.0,4.0,5.0,4.0,4.0,2.0,3.0,4.0,1.0,6.0,,1.0,6.0,5.0,4.0,2.0,1.0,The US government and citizen dish regarding the seriousness and consequences of this pandemic makes me fear for my general safety as well as my health as a high risk individual,3.4,3.0,2.666667,4.0,4.0,4.333333,3.666667,5.5
73369,742,2020-04-01 14:19:13,EN,39,Male,PhD/Doctorate,College degree,Self-employed,United States,no,massachusetts,Married/cohabiting,1.0,Yes,Isolated,2.0,1.0,,Program D,Yes,2.0,2.0,3.0,5.0,3.0,1.0,4.0,4.0,2.0,1.0,2.0,2.0,3.0,3.0,5.0,2.0,4.0,3.0,3.0,4.0,2.0,4.0,5.0,5.0,5.0,5.0,4.0,5.0,4.0,5.0,2.0,3.0,4.0,1.0,1.0,6.0,5.0,4.0,4.0,4.0,3.0,3.0,4.0,3.0,3.0,4.0,4.0,5.0,2.0,1.0,2.0,2.0,4.0,3.0,2.0,1.0,4.0,5.0,3.0,4.0,4.0,4.0,3.0,2.0,1.0,2.0,2.0,2.0,2.0,3.0,4.0,2.0,,6.0,6.0,5.0,6.0,6.0,6.0,6.0,6.0,6.0,6.0,3.0,5.0,5.0,4.0,4.0,2.0,4.0,5.0,4.0,3.0,3.0,2.0,4.0,5.0,3.0,2.0,,2.0,4.0,4.0,3.0,3.0,4.0,,1.9,2.333333,1.0,4.0,3.333333,3.0,4.0,5.9
73409,931,2020-04-01 14:18:38,EN,31,Female,"College degree, bachelor, master",PhD/Doctorate,Full time employed,United States,no,MA,Single,0.0,Yes,Isolated,0.0,0.0,Program A,,No,2.0,2.0,3.0,5.0,3.0,1.0,5.0,4.0,2.0,2.0,2.0,1.0,2.0,3.0,9.0,2.0,3.0,7.0,4.0,9.0,1.0,4.0,6.0,6.0,6.0,6.0,2.0,6.0,6.0,6.0,4.0,3.0,3.0,3.0,2.0,5.0,5.0,6.0,2.0,6.0,6.0,6.0,4.0,4.0,5.0,6.0,4.0,6.0,1.0,5.0,99.0,1.0,4.0,4.0,2.0,99.0,99.0,6.0,6.0,6.0,6.0,6.0,5.0,4.0,5.0,3.0,5.0,3.0,6.0,1.0,4.0,1.0,,6.0,6.0,6.0,6.0,6.0,6.0,6.0,6.0,6.0,6.0,4.0,6.0,6.0,4.0,4.0,4.0,1.0,1.0,3.0,4.0,4.0,6.0,5.0,2.0,1.0,6.0,,1.0,4.0,5.0,3.0,3.0,1.0,,1.9,1.666667,2.333333,5.333333,6.0,4.0,5.0,6.0
73459,10247,2020-04-01 16:48:24,EN,50,Female,Up to 12 years of school,Up to 12 years of school,Not employed,United States,no,,Married/cohabiting,3.0,Yes,Isolated,3.0,0.0,,,,2.0,2.0,3.0,4.0,3.0,3.0,4.0,4.0,3.0,2.0,2.0,2.0,3.0,2.0,4.0,,2.0,2.0,10.0,10.0,,6.0,6.0,6.0,6.0,6.0,0.0,5.0,6.0,6.0,,2.0,4.0,5.0,3.0,4.0,5.0,4.0,3.0,3.0,4.0,3.0,2.0,6.0,6.0,5.0,1.0,6.0,4.0,2.0,1.0,6.0,6.0,2.0,1.0,2.0,1.0,6.0,3.0,6.0,6.0,6.0,1.0,3.0,1.0,3.0,2.0,6.0,4.0,3.0,6.0,1.0,,5.0,5.0,5.0,5.0,5.0,5.0,5.0,5.0,5.0,4.0,6.0,2.0,5.0,1.0,5.0,5.0,1.0,1.0,6.0,5.0,6.0,6.0,5.0,6.0,5.0,6.0,,1.0,5.0,6.0,5.0,4.0,4.0,,2.4,2.333333,3.666667,4.333333,3.333333,5.666667,5.666667,4.9
73464,1079,2020-04-01 14:15:30,HR,36,Female,"College degree, bachelor, master",Some College or equivalent,Not employed,United States,yes,,Married/cohabiting,1.0,No,Life carries on with minor changes,1.0,1.0,,Program D,No,1.0,2.0,2.0,5.0,4.0,3.0,1.0,5.0,2.0,1.0,3.0,1.0,2.0,6.0,7.0,3.0,9.0,5.0,1.0,6.0,2.0,5.0,5.0,4.0,3.0,3.0,8.0,6.0,6.0,6.0,2.0,4.0,4.0,4.0,3.0,5.0,4.0,4.0,3.0,3.0,2.0,5.0,1.0,5.0,5.0,4.0,3.0,5.0,6.0,3.0,99.0,4.0,4.0,2.0,1.0,1.0,1.0,4.0,5.0,6.0,6.0,6.0,99.0,4.0,1.0,2.0,2.0,1.0,3.0,1.0,4.0,5.0,,6.0,5.0,5.0,5.0,6.0,4.0,6.0,5.0,5.0,6.0,4.0,5.0,5.0,2.0,4.0,5.0,1.0,1.0,3.0,4.0,5.0,4.0,5.0,5.0,1.0,3.0,,1.0,1.0,1.0,4.0,4.0,3.0,,2.0,2.0,3.0,4.0,3.333333,5.333333,4.333333,5.3
73499,2362,2020-04-01 14:32:57,EN,49,Female,"College degree, bachelor, master",Up to 12 years of school,Full time employed,United States,yes,GEORGIA,Single,0.0,Yes,Isolated,0.0,0.0,Program B,,No,3.0,2.0,4.0,4.0,3.0,2.0,4.0,3.0,2.0,2.0,5.0,1.0,4.0,8.0,9.0,3.0,7.0,7.0,7.0,8.0,2.0,5.0,6.0,5.0,5.0,5.0,0.0,6.0,6.0,6.0,1.0,6.0,2.0,4.0,3.0,6.0,6.0,6.0,1.0,5.0,6.0,4.0,2.0,5.0,6.0,5.0,1.0,5.0,2.0,2.0,99.0,2.0,4.0,5.0,1.0,99.0,99.0,5.0,2.0,6.0,6.0,6.0,1.0,5.0,2.0,6.0,5.0,3.0,5.0,1.0,5.0,5.0,,6.0,6.0,6.0,5.0,6.0,6.0,6.0,6.0,6.0,6.0,2.0,5.0,5.0,5.0,5.0,5.0,5.0,5.0,5.0,5.0,2.0,3.0,5.0,5.0,5.0,3.0,,5.0,5.0,5.0,5.0,1.0,5.0,,2.5,3.333333,2.666667,6.0,5.0,5.333333,5.333333,5.9
73520,914,2020-04-01 14:07:01,EN,39,Male,"College degree, bachelor, master",Up to 12 years of school,Full time employed,United States,yes,New York,Married/cohabiting,0.0,Yes,Life carries on with minor changes,1.0,0.0,Program B,,No,4.0,4.0,4.0,3.0,3.0,2.0,4.0,3.0,2.0,4.0,1.0,1.0,1.0,8.0,9.0,6.0,7.0,6.0,3.0,6.0,6.0,6.0,6.0,6.0,6.0,5.0,2.0,6.0,6.0,6.0,2.0,4.0,4.0,5.0,5.0,5.0,6.0,6.0,1.0,4.0,6.0,3.0,5.0,5.0,5.0,4.0,4.0,5.0,1.0,3.0,99.0,4.0,4.0,4.0,1.0,99.0,99.0,5.0,5.0,6.0,6.0,6.0,4.0,2.0,4.0,2.0,4.0,6.0,2.0,4.0,5.0,5.0,,5.0,5.0,6.0,6.0,6.0,5.0,5.0,6.0,5.0,5.0,5.0,5.0,5.0,4.0,5.0,5.0,1.0,1.0,6.0,2.0,5.0,5.0,4.0,5.0,5.0,4.0,,5.0,2.0,5.0,6.0,4.0,1.0,Sense of extreme vulnerability  ,3.1,1.0,4.0,6.0,4.333333,4.0,4.0,5.4
73579,1679,2020-04-01 14:14:03,PL,40,Female,"College degree, bachelor, master",Up to 12 years of school,Self-employed,United States,yes,Illinois,Married/cohabiting,3.0,Yes,Life carries on with minor changes,1.0,2.0,,Program D,Not sure,2.0,2.0,2.0,4.0,4.0,2.0,4.0,4.0,2.0,2.0,2.0,2.0,2.0,5.0,8.0,,3.0,5.0,5.0,10.0,,4.0,5.0,5.0,4.0,4.0,1.0,5.0,5.0,6.0,5.0,4.0,3.0,3.0,3.0,3.0,5.0,3.0,4.0,3.0,4.0,3.0,2.0,5.0,5.0,5.0,2.0,5.0,6.0,2.0,3.0,4.0,3.0,2.0,99.0,2.0,2.0,6.0,5.0,6.0,6.0,5.0,99.0,99.0,2.0,3.0,6.0,3.0,3.0,3.0,6.0,99.0,,5.0,5.0,5.0,4.0,5.0,2.0,5.0,5.0,5.0,5.0,2.0,5.0,5.0,4.0,5.0,5.0,5.0,5.0,4.0,5.0,5.0,1.0,5.0,5.0,2.0,2.0,,2.0,5.0,5.0,5.0,5.0,3.0,,2.0,2.0,3.333333,3.666667,3.333333,5.0,5.0,4.6
73584,446,2020-04-01 13:52:59,EN,44,Female,"College degree, bachelor, master",College degree,Full time employed,United States,no,massachusetts,Married/cohabiting,0.0,Yes,Isolated,1.0,0.0,Program A,,Yes,4.0,4.0,5.0,3.0,3.0,4.0,3.0,3.0,5.0,3.0,2.0,4.0,5.0,6.0,9.0,1.0,3.0,7.0,7.0,9.0,,6.0,6.0,6.0,6.0,6.0,0.0,5.0,5.0,6.0,5.0,2.0,6.0,6.0,6.0,4.0,6.0,6.0,1.0,6.0,6.0,6.0,6.0,5.0,5.0,5.0,2.0,6.0,4.0,6.0,4.0,6.0,6.0,99.0,6.0,5.0,4.0,6.0,6.0,6.0,6.0,99.0,2.0,2.0,1.0,6.0,6.0,6.0,5.0,3.0,99.0,3.0,,6.0,6.0,6.0,6.0,6.0,6.0,6.0,6.0,6.0,6.0,4.0,6.0,6.0,4.0,6.0,5.0,4.0,4.0,5.0,5.0,5.0,5.0,5.0,6.0,4.0,5.0,,1.0,4.0,2.0,5.0,6.0,5.0,,3.7,3.666667,5.0,6.0,6.0,3.666667,5.333333,6.0
73641,645,2020-04-02 13:52:20,EN,72,Female,"College degree, bachelor, master",College degree,Retired,United States,no,Nebraska USA,Married/cohabiting,0.0,Yes,Isolated,1.0,0.0,,Program D,No,2.0,2.0,3.0,5.0,3.0,1.0,5.0,4.0,1.0,1.0,2.0,1.0,1.0,7.0,9.0,6.0,8.0,8.0,8.0,8.0,4.0,2.0,2.0,2.0,6.0,6.0,2.0,4.0,2.0,4.0,1.0,2.0,4.0,2.0,1.0,5.0,5.0,5.0,2.0,4.0,6.0,5.0,2.0,5.0,5.0,5.0,2.0,6.0,,,,,,,,,,,,,,,,,,,,,,,,,,,,,,,,,,,,,,,,,,,,,,,,,,,,,,,,,,,,1.7,1.333333,1.666667,5.0,5.0,5.0,5.333333,
73642,5963,2020-04-02 15:20:28,EN,74,Female,Up to 12 years of school,Up to 12 years of school,Retired,United States,no,michigan,Married/cohabiting,0.0,Yes,Life carries on with minor changes,1.0,0.0,,Program D,No,3.0,4.0,3.0,4.0,3.0,1.0,5.0,3.0,3.0,2.0,5.0,2.0,1.0,8.0,9.0,2.0,8.0,7.0,7.0,7.0,1.0,6.0,6.0,6.0,6.0,6.0,2.0,5.0,5.0,6.0,4.0,5.0,3.0,5.0,4.0,4.0,6.0,5.0,4.0,3.0,4.0,4.0,2.0,5.0,6.0,4.0,3.0,4.0,99.0,4.0,99.0,99.0,4.0,6.0,6.0,2.0,99.0,6.0,6.0,5.0,6.0,6.0,99.0,6.0,2.0,1.0,5.0,5.0,2.0,5.0,6.0,99.0,,6.0,6.0,6.0,6.0,6.0,6.0,6.0,6.0,5.0,6.0,2.0,,6.0,3.0,,,2.0,2.0,4.0,5.0,4.0,5.0,,,6.0,,,4.0,5.0,2.0,4.0,3.0,4.0,,2.5,2.666667,4.0,4.666667,3.666667,5.333333,4.0,5.9
73656,974,2020-04-01 13:55:54,BG,49,Female,"College degree, bachelor, master",Up to 12 years of school,Student,United States,yes,,Married/cohabiting,0.0,Yes,Life carries on with minor changes,0.0,0.0,Program A,,No,3.0,3.0,4.0,4.0,4.0,2.0,3.0,3.0,3.0,3.0,2.0,2.0,3.0,7.0,8.0,3.0,8.0,8.0,10.0,9.0,7.0,6.0,5.0,6.0,6.0,6.0,3.0,5.0,5.0,6.0,3.0,5.0,3.0,4.0,3.0,5.0,6.0,6.0,1.0,3.0,5.0,4.0,4.0,4.0,4.0,2.0,4.0,6.0,4.0,3.0,3.0,4.0,1.0,6.0,99.0,4.0,99.0,6.0,3.0,6.0,6.0,6.0,2.0,2.0,2.0,1.0,3.0,4.0,4.0,3.0,3.0,6.0,,5.0,5.0,5.0,5.0,5.0,4.0,6.0,5.0,4.0,5.0,3.0,6.0,6.0,5.0,5.0,6.0,4.0,4.0,6.0,4.0,2.0,4.0,4.0,5.0,1.0,5.0,,3.0,4.0,4.0,3.0,6.0,5.0,,2.8,2.333333,3.0,6.0,4.0,3.666667,3.666667,4.9
73712,1880,2020-04-01 14:03:34,EN,45,Male,PhD/Doctorate,College degree,Full time employed,United States,no,CA,Married/cohabiting,2.0,Yes,Life carries on with minor changes,,2.0,,Program C,No,3.0,2.0,4.0,4.0,2.0,3.0,4.0,2.0,3.0,2.0,2.0,3.0,3.0,7.0,9.0,5.0,6.0,6.0,6.0,5.0,3.0,5.0,5.0,5.0,6.0,4.0,1.0,4.0,6.0,6.0,3.0,3.0,2.0,4.0,4.0,6.0,3.0,3.0,4.0,6.0,5.0,4.0,2.0,3.0,3.0,5.0,2.0,5.0,2.0,4.0,3.0,2.0,4.0,3.0,1.0,3.0,2.0,6.0,5.0,5.0,5.0,5.0,2.0,2.0,2.0,3.0,2.0,2.0,2.0,2.0,5.0,4.0,,5.0,5.0,5.0,5.0,6.0,5.0,5.0,5.0,5.0,5.0,2.0,3.0,4.0,3.0,3.0,2.0,2.0,2.0,4.0,4.0,4.0,2.0,4.0,4.0,1.0,2.0,,3.0,4.0,3.0,3.0,4.0,2.0,,2.9,2.666667,3.0,3.0,5.0,3.666667,5.0,5.1
73729,658,2020-04-01 13:40:56,EN,20,Female,"Some College, short continuing education or equivalent",College degree,Self-employed,United States,no,NY,Single,0.0,No,Isolated,3.0,2.0,Program A,,Not sure,4.0,3.0,5.0,3.0,3.0,4.0,3.0,3.0,4.0,4.0,3.0,4.0,4.0,6.0,8.0,2.0,2.0,,,6.0,2.0,4.0,5.0,4.0,6.0,6.0,0.0,5.0,5.0,6.0,4.0,5.0,6.0,6.0,6.0,2.0,5.0,5.0,5.0,5.0,6.0,4.0,4.0,5.0,6.0,6.0,2.0,6.0,6.0,6.0,99.0,6.0,4.0,6.0,99.0,6.0,6.0,6.0,5.0,6.0,5.0,6.0,5.0,6.0,4.0,6.0,6.0,6.0,6.0,5.0,6.0,5.0,,5.0,5.0,5.0,4.0,5.0,4.0,5.0,4.0,3.0,5.0,4.0,4.0,6.0,4.0,5.0,2.0,4.0,4.0,6.0,4.0,5.0,6.0,5.0,5.0,1.0,3.0,,6.0,6.0,6.0,5.0,6.0,1.0,college not doing anything to compensate for loss or work study,3.6,3.666667,5.666667,4.0,5.0,4.666667,5.666667,4.5
73768,776,2020-04-01 13:36:28,EN,25,Female,"College degree, bachelor, master",Some College or equivalent,Full time employed,United States,no,,Single,0.0,Yes,Isolated,3.0,1.0,Program A,,No,1.0,3.0,5.0,3.0,3.0,4.0,5.0,2.0,3.0,2.0,2.0,4.0,5.0,4.0,9.0,4.0,1.0,7.0,5.0,7.0,2.0,6.0,6.0,6.0,4.0,4.0,0.0,3.0,6.0,5.0,1.0,4.0,6.0,6.0,5.0,3.0,5.0,1.0,6.0,2.0,6.0,4.0,5.0,3.0,5.0,3.0,4.0,6.0,6.0,3.0,99.0,5.0,3.0,3.0,99.0,5.0,3.0,6.0,3.0,6.0,6.0,6.0,1.0,1.0,5.0,3.0,6.0,5.0,5.0,2.0,6.0,5.0,,6.0,6.0,4.0,6.0,6.0,4.0,6.0,6.0,2.0,6.0,2.0,1.0,6.0,1.0,6.0,5.0,6.0,2.0,6.0,4.0,4.0,5.0,5.0,6.0,1.0,5.0,,4.0,6.0,6.0,6.0,5.0,1.0,,2.9,3.666667,5.0,2.333333,4.0,3.333333,4.0,5.2
73875,1769,2020-04-01 13:41:04,EN,45,Female,"College degree, bachelor, master",Up to 12 years of school,Full time employed,United States,no,California,Single,0.0,Yes,Life carries on with minor changes,0.0,0.0,,Program D,No,4.0,4.0,5.0,3.0,2.0,3.0,3.0,2.0,4.0,3.0,4.0,5.0,4.0,6.0,8.0,2.0,6.0,7.0,5.0,6.0,2.0,6.0,6.0,6.0,6.0,6.0,0.0,2.0,5.0,6.0,1.0,2.0,1.0,6.0,4.0,5.0,5.0,1.0,6.0,4.0,6.0,4.0,2.0,6.0,6.0,5.0,2.0,5.0,4.0,2.0,99.0,4.0,4.0,4.0,2.0,99.0,99.0,4.0,4.0,6.0,6.0,6.0,99.0,4.0,3.0,4.0,3.0,5.0,4.0,4.0,5.0,2.0,The time I spend at work in contact with people is a strong concern.,3.0,2.0,2.0,2.0,2.0,3.0,2.0,3.0,3.0,4.0,1.0,3.0,4.0,4.0,4.0,3.0,2.0,2.0,4.0,4.0,2.0,2.0,4.0,4.0,3.0,2.0,,2.0,4.0,4.0,4.0,4.0,3.0,My job is in social services and I have seen more and more people impacted by the financial hardships over this virus. My work puts me face to face with people everyday and the potential for exposure is stressful in addition to the stories of the people I deal with. My work load has created some resentments rather than feelings of helpfulness at times when I wish momentarily I had a job that would let me work from home and be isolated more. I find I dont wish to go out and about for necessary things because Im already in constant exposure to the virus. It is hard to feel normal in this situation.,3.7,4.333333,4.0,2.333333,4.666667,5.666667,5.0,2.6
73968,854,2020-04-01 13:17:54,EN,23,Female,"College degree, bachelor, master",College degree,Student,United States,no,Colorado,Married/cohabiting,0.0,Yes,Isolated,3.0,0.0,Program A,,Not sure,5.0,4.0,5.0,3.0,2.0,4.0,3.0,3.0,5.0,5.0,5.0,3.0,5.0,7.0,9.0,4.0,4.0,4.0,3.0,10.0,5.0,4.0,6.0,5.0,5.0,5.0,3.0,5.0,6.0,6.0,2.0,2.0,1.0,4.0,4.0,4.0,6.0,6.0,1.0,6.0,5.0,4.0,2.0,5.0,5.0,4.0,4.0,5.0,2.0,5.0,99.0,5.0,2.0,5.0,4.0,2.0,2.0,4.0,2.0,5.0,6.0,3.0,6.0,6.0,2.0,5.0,5.0,2.0,4.0,2.0,6.0,99.0,,6.0,5.0,5.0,6.0,5.0,6.0,5.0,6.0,5.0,6.0,4.0,6.0,6.0,5.0,5.0,5.0,5.0,5.0,5.0,4.0,3.0,4.0,5.0,5.0,4.0,3.0,,4.0,3.0,4.0,4.0,4.0,2.0,,4.1,4.333333,3.666667,6.0,5.0,5.0,4.0,5.5
73985,880,2020-04-01 13:16:09,EN,32,Female,"Some College, short continuing education or equivalent",College degree,Not employed,United States,no,Oregon,Married/cohabiting,0.0,Yes,Isolated,1.0,0.0,Program A,,No,2.0,4.0,5.0,3.0,2.0,3.0,3.0,3.0,5.0,3.0,1.0,1.0,3.0,3.0,7.0,,,,,6.0,,6.0,6.0,6.0,6.0,6.0,0.0,6.0,6.0,6.0,2.0,2.0,4.0,5.0,5.0,4.0,2.0,1.0,5.0,5.0,5.0,6.0,3.0,2.0,4.0,4.0,3.0,5.0,2.0,99.0,99.0,99.0,5.0,3.0,99.0,2.0,99.0,4.0,5.0,6.0,6.0,5.0,99.0,2.0,3.0,2.0,3.0,4.0,4.0,1.0,5.0,1.0,,5.0,5.0,5.0,5.0,6.0,5.0,5.0,6.0,4.0,3.0,1.0,1.0,5.0,1.0,2.0,5.0,6.0,5.0,4.0,3.0,5.0,4.0,2.0,6.0,1.0,2.0,,6.0,6.0,5.0,4.0,3.0,2.0,,3.5,1.666667,4.333333,1.666667,5.333333,3.333333,4.333333,4.9
74168,1704,2020-04-01 13:13:27,EN,50,Male,"College degree, bachelor, master",College degree,Full time employed,United States,yes,NY,Married/cohabiting,0.0,No,Isolated,0.0,0.0,,Program D,Yes,2.0,1.0,2.0,5.0,4.0,1.0,4.0,4.0,1.0,2.0,1.0,1.0,4.0,7.0,9.0,9.0,9.0,9.0,8.0,8.0,2.0,5.0,5.0,5.0,4.0,4.0,2.0,5.0,6.0,6.0,5.0,5.0,4.0,2.0,2.0,5.0,5.0,5.0,1.0,4.0,5.0,6.0,4.0,6.0,5.0,5.0,1.0,6.0,1.0,2.0,1.0,3.0,1.0,6.0,1.0,1.0,1.0,4.0,2.0,3.0,2.0,3.0,2.0,2.0,2.0,4.0,6.0,2.0,3.0,1.0,5.0,6.0,,6.0,6.0,6.0,6.0,6.0,6.0,6.0,6.0,6.0,6.0,3.0,2.0,6.0,3.0,5.0,5.0,2.0,2.0,5.0,6.0,3.0,4.0,6.0,4.0,2.0,5.0,,2.0,2.0,2.0,4.0,2.0,5.0,,1.6,2.0,2.0,5.333333,5.0,4.666667,5.666667,6.0
74189,1358,2020-04-01 13:05:48,EN,56,Female,PhD/Doctorate,College degree,Full time employed,United States,no,Idaho,Single,0.0,Yes,Isolated,0.0,0.0,Program A,,No,2.0,3.0,4.0,5.0,1.0,2.0,4.0,3.0,1.0,1.0,3.0,1.0,4.0,7.0,9.0,4.0,5.0,7.0,10.0,10.0,1.0,4.0,5.0,5.0,6.0,6.0,1.0,4.0,5.0,5.0,3.0,2.0,1.0,3.0,2.0,4.0,5.0,2.0,4.0,5.0,6.0,4.0,3.0,5.0,5.0,6.0,4.0,5.0,2.0,6.0,99.0,99.0,4.0,4.0,99.0,99.0,99.0,5.0,4.0,4.0,3.0,3.0,6.0,5.0,1.0,4.0,5.0,4.0,3.0,2.0,3.0,1.0,,6.0,5.0,4.0,5.0,5.0,5.0,5.0,6.0,5.0,6.0,2.0,5.0,5.0,4.0,4.0,3.0,1.0,1.0,6.0,3.0,2.0,4.0,3.0,2.0,4.0,3.0,,1.0,5.0,3.0,2.0,4.0,2.0,,2.4,2.666667,2.666667,3.333333,5.0,4.666667,4.666667,5.2
74194,905,2020-04-01 12:57:42,EN,43,Female,"Some College, short continuing education or equivalent",Up to 12 years of school,Retired,United States,no,Ok,Married/cohabiting,1.0,Yes,Isolated,1.0,1.0,Program A,,No,4.0,4.0,5.0,4.0,2.0,3.0,4.0,2.0,2.0,3.0,4.0,4.0,5.0,6.0,8.0,1.0,1.0,6.0,3.0,10.0,1.0,6.0,5.0,5.0,6.0,6.0,0.0,5.0,6.0,6.0,1.0,1.0,4.0,5.0,5.0,5.0,3.0,2.0,5.0,4.0,5.0,5.0,2.0,5.0,5.0,5.0,4.0,5.0,1.0,99.0,2.0,99.0,4.0,4.0,1.0,1.0,99.0,3.0,4.0,6.0,6.0,5.0,1.0,1.0,1.0,3.0,3.0,1.0,4.0,2.0,3.0,5.0,,4.0,4.0,3.0,4.0,5.0,4.0,5.0,5.0,5.0,4.0,4.0,1.0,3.0,1.0,2.0,5.0,4.0,4.0,5.0,4.0,4.0,2.0,4.0,4.0,1.0,4.0,,3.0,3.0,4.0,3.0,3.0,1.0,,3.3,4.333333,4.0,2.333333,4.666667,5.0,4.333333,4.3
74207,627,2020-04-01 12:52:09,TR,31,Male,PhD/Doctorate,College degree,Student,United States,yes,Chicago,Single,0.0,Yes,Isolated,0.0,0.0,,Program D,No,3.0,5.0,4.0,3.0,2.0,3.0,2.0,2.0,3.0,3.0,3.0,2.0,4.0,3.0,8.0,1.0,4.0,4.0,7.0,4.0,6.0,6.0,6.0,6.0,6.0,6.0,4.0,1.0,1.0,1.0,1.0,1.0,4.0,2.0,3.0,3.0,5.0,6.0,2.0,4.0,4.0,5.0,2.0,5.0,3.0,4.0,3.0,4.0,5.0,5.0,1.0,5.0,5.0,4.0,2.0,1.0,1.0,6.0,5.0,6.0,6.0,6.0,5.0,3.0,3.0,4.0,6.0,6.0,1.0,1.0,6.0,6.0,,6.0,5.0,6.0,6.0,6.0,5.0,6.0,6.0,5.0,6.0,3.0,6.0,6.0,5.0,5.0,3.0,1.0,1.0,6.0,4.0,6.0,5.0,5.0,6.0,4.0,3.0,,5.0,5.0,5.0,6.0,5.0,2.0,,3.6,3.0,3.0,5.333333,4.333333,4.333333,4.0,5.7
74389,324,2020-04-02 12:30:48,EN,30,Female,"College degree, bachelor, master",Up to 12 years of school,Full time employed,United States,no,Illinois,Married/cohabiting,1.0,Yes,Life carries on with minor changes,,,Program A,,No,2.0,2.0,3.0,4.0,3.0,2.0,4.0,4.0,2.0,2.0,2.0,2.0,3.0,5.0,8.0,2.0,8.0,8.0,1.0,3.0,0.0,4.0,5.0,5.0,6.0,6.0,2.0,5.0,4.0,2.0,4.0,4.0,4.0,,,,,,,,,,,,,,,,,,,,,,,,,,,,,,,,,,,,,,,,,,,,,,,,,,,,,,,,,,,,,,,,,,,,,,,,,,,2.2,2.333333,,,,,,
74679,1510,2020-04-01 12:24:00,EN,30,Male,PhD/Doctorate,Some College or equivalent,Full time employed,United States,no,Oregon,Single,0.0,Yes,Isolated,0.0,0.0,Program A,,No,2.0,2.0,2.0,3.0,4.0,2.0,4.0,3.0,3.0,3.0,2.0,3.0,2.0,3.0,6.0,2.0,9.0,5.0,6.0,9.0,5.0,4.0,5.0,4.0,5.0,5.0,4.0,5.0,3.0,5.0,2.0,3.0,4.0,3.0,2.0,4.0,3.0,2.0,5.0,5.0,4.0,4.0,4.0,3.0,4.0,3.0,4.0,4.0,1.0,5.0,99.0,2.0,4.0,4.0,1.0,99.0,99.0,6.0,5.0,4.0,5.0,5.0,2.0,2.0,4.0,2.0,4.0,5.0,3.0,4.0,4.0,4.0,,5.0,4.0,3.0,5.0,5.0,4.0,5.0,5.0,4.0,4.0,3.0,4.0,4.0,3.0,3.0,2.0,4.0,4.0,3.0,4.0,3.0,4.0,4.0,3.0,1.0,2.0,,4.0,3.0,3.0,1.0,1.0,1.0,,2.4,2.333333,2.666667,2.333333,4.333333,3.333333,3.333333,4.4
74703,1495,2020-04-01 12:21:36,EN,56,Female,PhD/Doctorate,Some College or equivalent,Not employed,United States,no,Il,Divorced/widowed,0.0,Yes,,1.0,0.0,Program A,,Yes,3.0,4.0,3.0,3.0,2.0,4.0,3.0,2.0,4.0,4.0,5.0,3.0,4.0,3.0,3.0,1.0,1.0,1.0,1.0,0.0,3.0,4.0,,4.0,2.0,3.0,4.0,4.0,3.0,5.0,2.0,2.0,3.0,2.0,2.0,6.0,4.0,4.0,3.0,5.0,6.0,4.0,4.0,3.0,4.0,6.0,4.0,6.0,4.0,5.0,2.0,3.0,2.0,2.0,2.0,6.0,1.0,3.0,2.0,2.0,2.0,1.0,3.0,3.0,2.0,5.0,1.0,3.0,2.0,2.0,1.0,2.0,,5.0,5.0,3.0,5.0,5.0,3.0,5.0,4.0,5.0,4.0,4.0,3.0,5.0,4.0,4.0,4.0,1.0,1.0,5.0,6.0,3.0,4.0,5.0,5.0,2.0,4.0,,4.0,5.0,5.0,2.0,4.0,2.0,"Police are not helpful Justice is corrupted and the common person has no voice My brother in law Shawn Robert McDonald is scamming the system like,so many sociopaths will.  I fear for my own life at times.  He already killed my husband and now with the focus on Cov19 they definitely won't get him!  I'm angry about that.",3.6,4.0,1.666667,4.0,5.0,3.333333,5.0,4.4
74805,1436,2020-04-02 12:13:17,EN,43,Female,"College degree, bachelor, master",College degree,Full time employed,United States,yes,New York,Single,0.0,Yes,Life carries on with minor changes,0.0,0.0,Program A,,No,3.0,2.0,4.0,4.0,4.0,2.0,3.0,4.0,3.0,3.0,2.0,2.0,1.0,4.0,8.0,1.0,3.0,3.0,3.0,4.0,2.0,5.0,6.0,5.0,5.0,5.0,1.0,5.0,6.0,6.0,1.0,3.0,4.0,4.0,4.0,6.0,5.0,3.0,4.0,5.0,5.0,6.0,1.0,3.0,4.0,5.0,2.0,5.0,2.0,2.0,99.0,3.0,4.0,2.0,99.0,99.0,99.0,5.0,5.0,6.0,6.0,6.0,2.0,2.0,1.0,1.0,2.0,3.0,5.0,2.0,2.0,6.0,,5.0,4.0,5.0,5.0,5.0,5.0,5.0,5.0,5.0,5.0,2.0,2.0,5.0,2.0,5.0,3.0,3.0,1.0,5.0,3.0,3.0,2.0,5.0,3.0,1.0,2.0,,5.0,6.0,6.0,6.0,4.0,2.0,,2.6,1.666667,3.0,3.666667,5.333333,4.333333,5.0,4.9
74828,6801,2020-04-02 13:40:24,BG,47,Female,"College degree, bachelor, master",Some College or equivalent,Part time employed,United States,yes,,Married/cohabiting,2.0,Yes,Isolated,1.0,0.0,,Program C,No,3.0,3.0,4.0,3.0,2.0,3.0,3.0,4.0,4.0,4.0,4.0,4.0,3.0,3.0,10.0,0.0,7.0,5.0,,6.0,1.0,6.0,6.0,5.0,6.0,6.0,3.0,4.0,6.0,6.0,6.0,4.0,2.0,5.0,4.0,4.0,6.0,3.0,2.0,3.0,5.0,4.0,1.0,2.0,5.0,5.0,2.0,5.0,5.0,4.0,99.0,5.0,4.0,3.0,1.0,4.0,99.0,6.0,4.0,6.0,6.0,6.0,4.0,5.0,1.0,3.0,2.0,99.0,6.0,1.0,6.0,6.0,,,,,,,,,,,,,,,,,,,,,,,,,,,,,,,,,,,,3.3,3.666667,4.0,4.666667,4.0,4.333333,5.0,
74912,1449,2020-04-01 12:04:15,EN,46,Female,"College degree, bachelor, master",Up to 12 years of school,Full time employed,United States,no,Michigan,Divorced/widowed,0.0,Yes,Isolated,0.0,0.0,,Program D,No,2.0,3.0,3.0,4.0,3.0,3.0,4.0,3.0,3.0,2.0,5.0,5.0,5.0,5.0,9.0,4.0,5.0,6.0,7.0,10.0,3.0,4.0,4.0,4.0,4.0,4.0,1.0,5.0,5.0,5.0,4.0,3.0,2.0,4.0,4.0,4.0,2.0,1.0,4.0,3.0,5.0,3.0,2.0,5.0,5.0,4.0,4.0,4.0,1.0,4.0,99.0,4.0,3.0,6.0,1.0,99.0,99.0,4.0,4.0,5.0,6.0,4.0,6.0,4.0,3.0,6.0,4.0,5.0,4.0,1.0,4.0,3.0,,4.0,5.0,5.0,3.0,5.0,5.0,4.0,4.0,6.0,4.0,3.0,2.0,4.0,3.0,4.0,5.0,3.0,3.0,5.0,4.0,3.0,4.0,2.0,4.0,1.0,5.0,,3.0,3.0,3.0,1.0,3.0,3.0,"Single person, living alone, very introverted, and I still am falling into daily bouts of sobbing, thinking about how many months without a hug from any friend this will still be.",2.6,5.0,3.666667,2.0,3.666667,5.0,3.666667,4.5
74913,615,2020-04-01 11:50:17,EN,44,Other/would rather not say,"Some College, short continuing education or equivalent",Up to 12 years of school,Part time employed,United States,no,colorado,Single,0.0,Yes,Isolated,0.0,0.0,,Program C,No,2.0,2.0,3.0,3.0,1.0,4.0,3.0,2.0,3.0,3.0,5.0,4.0,4.0,2.0,10.0,,3.0,,,5.0,,6.0,6.0,6.0,6.0,6.0,0.0,6.0,5.0,5.0,1.0,1.0,4.0,5.0,6.0,4.0,5.0,1.0,5.0,4.0,5.0,6.0,4.0,5.0,4.0,4.0,4.0,5.0,6.0,6.0,99.0,1.0,4.0,5.0,1.0,99.0,99.0,4.0,4.0,6.0,6.0,6.0,1.0,1.0,1.0,6.0,1.0,6.0,1.0,1.0,4.0,99.0,,1.0,4.0,2.0,1.0,1.0,1.0,1.0,1.0,1.0,1.0,3.0,1.0,4.0,1.0,1.0,4.0,6.0,6.0,6.0,3.0,4.0,3.0,1.0,5.0,1.0,3.0,,3.0,6.0,6.0,6.0,6.0,1.0,,3.2,4.333333,4.666667,2.666667,5.0,4.0,4.0,1.4
74955,415,2020-04-02 11:44:01,EN,19,Male,"Some College, short continuing education or equivalent",College degree,Student,United States,no,California,Single,0.0,Yes,Isolated,3.0,0.0,Program B,,No,3.0,2.0,3.0,4.0,4.0,3.0,4.0,4.0,2.0,3.0,3.0,2.0,4.0,8.0,10.0,2.0,3.0,8.0,3.0,7.0,4.0,2.0,4.0,3.0,6.0,6.0,0.0,6.0,3.0,2.0,4.0,3.0,1.0,,,,,,,,,,,,,,,,,,,,,,,,,,,,,,,,,,,,,,,,,,,,,,,,,,,,,,,,,,,,,,,,,,,,,,,,,,,2.4,3.0,,,,,,
74959,1997,2020-04-01 12:09:57,EN,34,Male,PhD/Doctorate,Some College or equivalent,Full time employed,United States,no,Oregon,Single,0.0,Yes,Isolated,1.0,0.0,Program A,,No,2.0,3.0,4.0,4.0,4.0,2.0,5.0,3.0,3.0,2.0,3.0,2.0,4.0,7.0,8.0,6.0,7.0,8.0,7.0,9.0,4.0,4.0,5.0,5.0,6.0,6.0,1.0,5.0,5.0,5.0,2.0,5.0,2.0,5.0,5.0,4.0,4.0,3.0,5.0,5.0,6.0,4.0,2.0,6.0,5.0,6.0,2.0,4.0,2.0,5.0,99.0,6.0,4.0,5.0,1.0,2.0,99.0,6.0,3.0,5.0,6.0,5.0,5.0,3.0,2.0,5.0,2.0,6.0,5.0,2.0,6.0,2.0,,6.0,4.0,5.0,5.0,6.0,5.0,6.0,6.0,4.0,6.0,4.0,2.0,4.0,2.0,2.0,5.0,1.0,1.0,4.0,4.0,5.0,6.0,4.0,3.0,1.0,5.0,,2.0,2.0,2.0,2.0,2.0,1.0,,2.4,3.0,4.333333,3.0,5.0,5.333333,5.0,5.3
75024,440,2020-04-02 11:38:26,EN,29,Female,"Some College, short continuing education or equivalent",College degree,Full time employed,United States,no,Oklahoma,Single,1.0,Yes,Isolated,0.0,1.0,,Program D,No,3.0,4.0,4.0,3.0,3.0,3.0,3.0,3.0,3.0,3.0,3.0,3.0,3.0,5.0,10.0,0.0,5.0,5.0,2.0,6.0,0.0,6.0,6.0,6.0,6.0,6.0,0.0,6.0,6.0,6.0,3.0,1.0,2.0,5.0,4.0,3.0,3.0,3.0,4.0,3.0,4.0,3.0,4.0,4.0,5.0,3.0,4.0,5.0,,,,,,,,,,,,,,,,,,,,,,,,,,,,,,,,,,,,,,,,,,,,,,,,,,,,,,,,,,,,3.2,3.0,4.333333,3.0,3.333333,4.0,3.666667,
75039,766,2020-04-01 11:57:35,EN,55,Female,"College degree, bachelor, master",Up to 12 years of school,Retired,United States,no,Virginia,Married/cohabiting,4.0,Yes,Life carries on with minor changes,0.0,0.0,,Program C,Not sure,3.0,3.0,4.0,2.0,3.0,3.0,3.0,3.0,4.0,2.0,1.0,2.0,3.0,7.0,9.0,4.0,7.0,7.0,7.0,,7.0,6.0,6.0,6.0,6.0,6.0,3.0,4.0,5.0,5.0,1.0,1.0,5.0,6.0,5.0,5.0,5.0,2.0,5.0,4.0,6.0,2.0,2.0,5.0,5.0,6.0,1.0,6.0,99.0,99.0,6.0,6.0,5.0,5.0,5.0,2.0,99.0,6.0,4.0,6.0,5.0,6.0,99.0,2.0,2.0,4.0,6.0,3.0,2.0,3.0,6.0,99.0,,6.0,5.0,5.0,6.0,6.0,6.0,6.0,6.0,5.0,6.0,3.0,5.0,4.0,4.0,3.0,4.0,1.0,1.0,4.0,4.0,5.0,5.0,1.0,5.0,4.0,3.0,,4.0,5.0,5.0,5.0,2.0,2.0,,3.2,2.0,4.333333,3.0,4.0,5.0,6.0,5.7
75054,924,2020-04-02 11:44:15,EN,25,Female,"College degree, bachelor, master",College degree,Full time employed,United States,no,Wisconsin,Single,0.0,No,Life carries on with minor changes,0.0,0.0,Program A,,Yes,2.0,1.0,3.0,3.0,1.0,1.0,3.0,3.0,2.0,1.0,3.0,2.0,2.0,5.0,5.0,2.0,3.0,4.0,3.0,7.0,0.0,4.0,6.0,4.0,4.0,4.0,0.0,5.0,5.0,5.0,1.0,2.0,4.0,4.0,4.0,5.0,4.0,1.0,6.0,5.0,4.0,6.0,6.0,2.0,4.0,5.0,4.0,6.0,99.0,2.0,99.0,6.0,2.0,3.0,99.0,99.0,99.0,6.0,5.0,6.0,6.0,5.0,2.0,1.0,1.0,4.0,4.0,1.0,5.0,1.0,5.0,99.0,,4.0,2.0,4.0,2.0,4.0,6.0,5.0,3.0,4.0,4.0,2.0,4.0,5.0,1.0,2.0,2.0,6.0,6.0,6.0,1.0,1.0,4.0,4.0,4.0,1.0,5.0,,5.0,5.0,5.0,5.0,5.0,3.0,,2.4,2.333333,3.333333,2.0,5.0,2.333333,4.666667,3.8
75069,1254,2020-04-01 11:48:38,EN,34,Male,"College degree, bachelor, master",Some College or equivalent,Full time employed,United States,no,IL,Single,0.0,Yes,Isolated,0.0,0.0,Program A,,No,3.0,5.0,5.0,3.0,2.0,3.0,3.0,2.0,4.0,5.0,4.0,3.0,3.0,2.0,5.0,1.0,0.0,5.0,0.0,9.0,0.0,5.0,6.0,5.0,5.0,5.0,0.0,5.0,5.0,5.0,2.0,2.0,4.0,4.0,2.0,5.0,4.0,2.0,5.0,3.0,5.0,5.0,5.0,5.0,4.0,3.0,5.0,2.0,6.0,5.0,99.0,6.0,4.0,4.0,99.0,99.0,99.0,5.0,6.0,5.0,6.0,5.0,99.0,99.0,4.0,5.0,5.0,4.0,5.0,4.0,6.0,99.0,,5.0,4.0,5.0,4.0,4.0,4.0,4.0,5.0,4.0,5.0,3.0,4.0,4.0,1.0,4.0,3.0,4.0,3.0,4.0,4.0,4.0,4.0,2.0,3.0,1.0,4.0,,3.0,4.0,4.0,3.0,4.0,3.0,,3.9,3.333333,2.666667,2.666667,4.333333,3.666667,2.333333,4.4
75073,76,2020-04-02 11:29:08,EN,29,Male,"College degree, bachelor, master",College degree,Part time employed,United States,no,New York,Single,0.0,No,Life carries on with minor changes,0.0,0.0,,,,,,,,,,,,,,,,,,,,,,,,,,,,,,,,,,,,,,,,,,,,,,,,,,,,,,,,,,,,,,,,,,,,,,,,,,,,,,,,,,,,,,,,,,,,,,,,,,,,,,,,,,,,,,,,,,,,,,
75099,205,2020-04-02 11:28:26,EN,31,Male,PhD/Doctorate,College degree,Full time employed,United States,no,NY,Single,0.0,Yes,Isolated,1.0,0.0,,Program D,No,3.0,5.0,5.0,3.0,3.0,3.0,3.0,3.0,1.0,3.0,3.0,4.0,3.0,,,,,,,,,,,,,,,,,,,,,,,,,,,,,,,,,,,,,,,,,,,,,,,,,,,,,,,,,,,,,,,,,,,,,,,,,,,,,,,,,,,,,,,,,,,,,,,3.2,3.333333,,,,,,
75158,702,2020-04-01 11:32:21,EN,25,Female,"College degree, bachelor, master",College degree,Full time employed,United States,no,New York,Single,0.0,Yes,Isolated,1.0,0.0,,Program D,No,3.0,4.0,4.0,3.0,3.0,4.0,3.0,4.0,4.0,2.0,3.0,2.0,5.0,5.0,8.0,2.0,4.0,6.0,6.0,8.0,4.0,4.0,6.0,4.0,5.0,5.0,2.0,5.0,5.0,6.0,1.0,3.0,4.0,5.0,4.0,4.0,5.0,4.0,3.0,5.0,5.0,4.0,2.0,4.0,5.0,5.0,4.0,5.0,2.0,5.0,99.0,4.0,5.0,5.0,99.0,4.0,99.0,6.0,4.0,5.0,5.0,6.0,6.0,4.0,4.0,5.0,5.0,99.0,3.0,1.0,5.0,2.0,,6.0,6.0,6.0,6.0,6.0,6.0,6.0,6.0,5.0,6.0,2.0,2.0,6.0,2.0,6.0,4.0,6.0,5.0,5.0,5.0,2.0,4.0,4.0,5.0,4.0,3.0,,5.0,5.0,4.0,5.0,5.0,2.0,,3.2,3.333333,4.0,4.333333,4.666667,4.666667,4.333333,5.9
75165,612,2020-04-01 11:30:17,DA,23,Female,"College degree, bachelor, master",College degree,Student,United States,no,,Single,0.0,No,Isolated,2.0,0.0,Program A,,No,2.0,4.0,3.0,3.0,1.0,3.0,3.0,3.0,3.0,2.0,5.0,3.0,5.0,7.0,10.0,7.0,8.0,7.0,8.0,7.0,10.0,3.0,4.0,3.0,5.0,6.0,5.0,6.0,5.0,5.0,6.0,2.0,2.0,6.0,6.0,3.0,5.0,6.0,3.0,6.0,6.0,6.0,4.0,6.0,6.0,4.0,3.0,4.0,3.0,5.0,99.0,3.0,1.0,5.0,1.0,5.0,99.0,6.0,6.0,4.0,4.0,4.0,5.0,6.0,4.0,6.0,5.0,5.0,3.0,2.0,6.0,99.0,,5.0,5.0,5.0,5.0,5.0,5.0,5.0,5.0,4.0,5.0,4.0,1.0,5.0,2.0,5.0,4.0,5.0,1.0,5.0,4.0,2.0,5.0,4.0,5.0,1.0,5.0,,6.0,4.0,6.0,5.0,5.0,4.0,,3.1,4.333333,5.333333,5.0,6.0,5.0,4.0,4.9
75186,809,2020-04-01 11:31:14,EN,30,Female,PhD/Doctorate,College degree,Student,United States,yes,Massachusetts,Married/cohabiting,0.0,Yes,Isolated,1.0,0.0,Program A,,No,3.0,3.0,5.0,3.0,2.0,3.0,3.0,3.0,2.0,3.0,1.0,1.0,1.0,4.0,7.0,,3.0,,4.0,4.0,,6.0,6.0,6.0,6.0,6.0,0.0,6.0,6.0,6.0,1.0,4.0,3.0,6.0,5.0,3.0,5.0,5.0,1.0,5.0,6.0,6.0,1.0,4.0,6.0,6.0,1.0,6.0,1.0,5.0,99.0,6.0,1.0,1.0,99.0,3.0,99.0,6.0,5.0,6.0,5.0,6.0,1.0,1.0,1.0,1.0,1.0,1.0,1.0,1.0,6.0,1.0,,6.0,6.0,6.0,6.0,6.0,6.0,6.0,6.0,6.0,6.0,4.0,1.0,5.0,1.0,1.0,5.0,1.0,1.0,6.0,5.0,2.0,3.0,1.0,5.0,1.0,1.0,,6.0,6.0,6.0,1.0,6.0,1.0,,3.2,1.0,5.0,5.333333,5.666667,5.333333,6.0,6.0
75342,845,2020-04-01 11:19:34,EN,44,Female,PhD/Doctorate,Some College or equivalent,Full time employed,United States,no,Michigan,Married/cohabiting,2.0,Yes,Life carries on with minor changes,1.0,2.0,,Program C,No,1.0,2.0,4.0,5.0,4.0,3.0,2.0,3.0,2.0,3.0,2.0,3.0,4.0,7.0,9.0,8.0,9.0,8.0,9.0,9.0,9.0,5.0,5.0,5.0,6.0,6.0,2.0,6.0,6.0,5.0,2.0,3.0,4.0,5.0,3.0,5.0,4.0,2.0,6.0,3.0,4.0,3.0,4.0,5.0,5.0,6.0,2.0,5.0,1.0,3.0,5.0,3.0,1.0,4.0,99.0,1.0,4.0,6.0,4.0,4.0,4.0,4.0,2.0,4.0,4.0,4.0,4.0,3.0,2.0,1.0,5.0,5.0,,6.0,6.0,5.0,6.0,6.0,6.0,6.0,6.0,6.0,6.0,5.0,4.0,6.0,1.0,6.0,5.0,1.0,2.0,4.0,4.0,2.0,5.0,5.0,4.0,1.0,5.0,,5.0,5.0,6.0,5.0,6.0,4.0,,2.5,3.0,3.333333,2.333333,3.333333,4.333333,5.333333,5.9
75388,1107,2020-04-01 11:19:11,EN,27,Female,"Some College, short continuing education or equivalent",College degree,Full time employed,United States,no,Oklahoma,Married/cohabiting,0.0,Yes,Isolated,0.0,0.0,,Program C,Not sure,3.0,4.0,4.0,4.0,2.0,3.0,3.0,3.0,4.0,3.0,5.0,2.0,5.0,2.0,6.0,2.0,7.0,5.0,6.0,6.0,3.0,4.0,6.0,4.0,5.0,5.0,4.0,5.0,4.0,5.0,2.0,1.0,2.0,3.0,4.0,4.0,2.0,2.0,5.0,3.0,5.0,3.0,1.0,3.0,5.0,5.0,5.0,5.0,4.0,4.0,99.0,4.0,4.0,4.0,99.0,99.0,99.0,5.0,4.0,6.0,6.0,5.0,99.0,3.0,4.0,5.0,4.0,6.0,5.0,2.0,5.0,99.0,,5.0,5.0,4.0,4.0,5.0,4.0,5.0,5.0,5.0,5.0,2.0,2.0,5.0,4.0,5.0,3.0,4.0,4.0,4.0,5.0,4.0,3.0,4.0,4.0,2.0,3.0,,5.0,5.0,3.0,5.0,5.0,1.0,,3.3,4.0,3.333333,2.0,3.666667,4.666667,4.0,4.7
75392,161,2020-04-02 11:03:42,EN,26,Female,PhD/Doctorate,College degree,Part time employed,United States,yes,Pennsylvania,Married/cohabiting,0.0,No,Life carries on with minor changes,1.0,0.0,,,,,,,,,,,,,,,,,,,,,,,,,,,,,,,,,,,,,,,,,,,,,,,,,,,,,,,,,,,,,,,,,,,,,,,,,,,,,,,,,,,,,,,,,,,,,,,,,,,,,,,,,,,,,,,,,,,,,,
75412,1262,2020-04-02 11:20:55,EN,77,Female,PhD/Doctorate,Up to 6 years of school,Retired,United States,no,Washington,Divorced/widowed,0.0,Yes,Isolated,0.0,0.0,,Program D,No,2.0,2.0,3.0,4.0,3.0,1.0,5.0,3.0,2.0,2.0,5.0,4.0,5.0,8.0,9.0,1.0,7.0,1.0,3.0,9.0,2.0,5.0,5.0,5.0,5.0,6.0,1.0,5.0,4.0,5.0,6.0,4.0,3.0,4.0,4.0,4.0,4.0,5.0,4.0,6.0,6.0,5.0,3.0,5.0,6.0,5.0,5.0,6.0,99.0,1.0,1.0,99.0,5.0,3.0,99.0,99.0,99.0,99.0,4.0,6.0,5.0,3.0,2.0,4.0,1.0,4.0,4.0,1.0,4.0,4.0,5.0,6.0,,4.0,5.0,6.0,4.0,6.0,6.0,5.0,6.0,6.0,3.0,2.0,1.0,6.0,1.0,6.0,4.0,1.0,1.0,4.0,3.0,2.0,4.0,6.0,6.0,1.0,2.0,,3.0,5.0,5.0,2.0,4.0,4.0,,2.1,4.666667,3.666667,4.0,5.666667,5.0,4.333333,5.1
75482,979,2020-04-01 11:10:06,EN,39,Female,"Some College, short continuing education or equivalent",College degree,Full time employed,United States,no,Minnesota,Married/cohabiting,3.0,Yes,Life carries on with minor changes,1.0,3.0,,Program D,No,2.0,1.0,3.0,3.0,4.0,3.0,3.0,2.0,3.0,2.0,2.0,3.0,3.0,7.0,9.0,5.0,7.0,7.0,7.0,9.0,2.0,2.0,3.0,3.0,5.0,5.0,2.0,5.0,5.0,5.0,2.0,5.0,1.0,4.0,5.0,3.0,6.0,3.0,4.0,5.0,6.0,5.0,2.0,5.0,5.0,4.0,5.0,5.0,4.0,3.0,5.0,4.0,4.0,5.0,1.0,3.0,6.0,5.0,4.0,3.0,5.0,4.0,6.0,2.0,3.0,4.0,5.0,3.0,4.0,1.0,4.0,1.0,,5.0,5.0,5.0,5.0,5.0,5.0,5.0,6.0,5.0,5.0,1.0,6.0,4.0,5.0,5.0,3.0,6.0,5.0,3.0,3.0,2.0,2.0,2.0,5.0,1.0,3.0,,2.0,5.0,4.0,4.0,3.0,5.0,,2.6,2.666667,4.333333,4.0,5.333333,5.0,3.666667,5.1
75614,1900,2020-04-01 11:15:29,EN,40,Female,"College degree, bachelor, master",College degree,Full time employed,United States,no,Oregon,Married/cohabiting,0.0,No,Isolated,1.0,0.0,Program A,,No,2.0,2.0,4.0,4.0,4.0,3.0,4.0,3.0,3.0,2.0,3.0,2.0,5.0,6.0,7.0,,,3.0,3.0,,,5.0,6.0,6.0,5.0,6.0,0.0,5.0,5.0,5.0,2.0,3.0,5.0,6.0,6.0,5.0,6.0,5.0,1.0,6.0,6.0,6.0,1.0,4.0,6.0,2.0,4.0,6.0,99.0,99.0,99.0,1.0,5.0,5.0,99.0,1.0,99.0,6.0,5.0,99.0,99.0,6.0,5.0,3.0,2.0,6.0,2.0,5.0,2.0,1.0,5.0,99.0,,5.0,6.0,6.0,5.0,6.0,6.0,6.0,6.0,6.0,6.0,1.0,1.0,5.0,1.0,2.0,3.0,2.0,1.0,5.0,5.0,5.0,5.0,2.0,6.0,1.0,1.0,,5.0,6.0,6.0,4.0,6.0,2.0,,2.5,3.333333,4.666667,5.666667,6.0,5.333333,3.666667,5.8
75644,959,2020-04-01 10:57:08,EN,48,Female,"College degree, bachelor, master",Some College or equivalent,Not employed,United States,no,Florida,Divorced/widowed,3.0,Yes,Isolated,0.0,1.0,,Program D,No,2.0,2.0,2.0,4.0,4.0,2.0,4.0,4.0,2.0,2.0,2.0,2.0,2.0,6.0,8.0,4.0,6.0,5.0,7.0,7.0,2.0,4.0,4.0,4.0,5.0,5.0,1.0,6.0,5.0,5.0,2.0,2.0,4.0,3.0,1.0,6.0,5.0,5.0,2.0,5.0,3.0,5.0,1.0,6.0,6.0,5.0,4.0,5.0,3.0,99.0,4.0,99.0,6.0,4.0,4.0,99.0,3.0,5.0,3.0,5.0,5.0,4.0,99.0,5.0,99.0,3.0,5.0,5.0,4.0,3.0,3.0,4.0,,4.0,4.0,4.0,4.0,4.0,4.0,4.0,4.0,4.0,4.0,5.0,5.0,4.0,2.0,5.0,5.0,4.0,5.0,5.0,6.0,4.0,3.0,4.0,5.0,4.0,5.0,,3.0,5.0,4.0,4.0,5.0,3.0,I am disappointed that the USA has not acted sooner in learning from other countries and that it will likely result in large amounts of preventable deaths,2.0,2.0,1.666667,5.0,4.333333,6.0,4.333333,4.0
75683,16126,2020-04-01 15:07:38,EN,52,Female,"College degree, bachelor, master",Some College or equivalent,Full time employed,United States,no,California,Single,0.0,Yes,Isolated,0.0,0.0,,Program D,No,1.0,3.0,2.0,5.0,4.0,2.0,4.0,4.0,3.0,1.0,1.0,1.0,3.0,3.0,5.0,3.0,7.0,7.0,7.0,7.0,5.0,5.0,6.0,5.0,5.0,5.0,3.0,5.0,6.0,6.0,1.0,2.0,5.0,5.0,3.0,3.0,5.0,6.0,3.0,5.0,5.0,5.0,5.0,2.0,4.0,5.0,4.0,5.0,4.0,2.0,99.0,2.0,1.0,4.0,1.0,99.0,99.0,5.0,5.0,6.0,4.0,6.0,1.0,1.0,2.0,4.0,4.0,,1.0,1.0,4.0,1.0,,4.0,5.0,5.0,4.0,4.0,5.0,5.0,4.0,5.0,5.0,4.0,5.0,5.0,5.0,1.0,5.0,4.0,1.0,5.0,5.0,4.0,5.0,3.0,5.0,1.0,5.0,,5.0,6.0,4.0,5.0,5.0,4.0,,1.9,1.666667,4.0,5.0,5.0,2.666667,4.333333,4.6
75700,1344,2020-04-01 10:59:46,EN,59,Female,"College degree, bachelor, master",Up to 12 years of school,Retired,United States,no,Minnesota,Married/cohabiting,0.0,Yes,Isolated,1.0,0.0,,,,2.0,3.0,3.0,4.0,2.0,2.0,3.0,3.0,3.0,3.0,2.0,3.0,3.0,8.0,7.0,7.0,7.0,7.0,7.0,5.0,7.0,5.0,5.0,5.0,5.0,5.0,5.0,6.0,6.0,6.0,5.0,2.0,1.0,2.0,2.0,5.0,5.0,5.0,5.0,5.0,5.0,1.0,2.0,4.0,5.0,5.0,2.0,5.0,2.0,2.0,4.0,2.0,4.0,4.0,2.0,2.0,99.0,5.0,3.0,2.0,4.0,4.0,99.0,2.0,99.0,4.0,4.0,4.0,4.0,2.0,5.0,99.0,,5.0,5.0,5.0,5.0,5.0,5.0,5.0,5.0,6.0,5.0,4.0,4.0,5.0,5.0,5.0,5.0,3.0,3.0,5.0,6.0,4.0,4.0,5.0,6.0,5.0,4.0,,3.0,3.0,2.0,2.0,5.0,1.0,,2.8,2.666667,2.0,4.0,3.666667,4.666667,5.0,5.1
75727,875,2020-04-01 10:50:18,EN,28,Female,"College degree, bachelor, master",Some College or equivalent,Full time employed,United States,no,NY,Single,0.0,No,Isolated,0.0,0.0,,,,2.0,2.0,5.0,5.0,3.0,2.0,4.0,4.0,2.0,2.0,3.0,3.0,5.0,4.0,7.0,1.0,7.0,5.0,1.0,7.0,2.0,5.0,5.0,5.0,5.0,5.0,2.0,6.0,5.0,4.0,3.0,1.0,1.0,3.0,1.0,5.0,2.0,1.0,5.0,4.0,6.0,4.0,2.0,3.0,5.0,4.0,3.0,5.0,3.0,4.0,99.0,99.0,6.0,5.0,99.0,99.0,99.0,5.0,5.0,5.0,5.0,2.0,2.0,3.0,4.0,4.0,4.0,6.0,2.0,2.0,4.0,4.0,,6.0,6.0,6.0,6.0,6.0,6.0,6.0,6.0,6.0,6.0,2.0,4.0,6.0,1.0,5.0,6.0,4.0,4.0,6.0,3.0,3.0,2.0,2.0,4.0,1.0,3.0,,5.0,4.0,5.0,2.0,6.0,1.0,Scarcity of groceries and fear that less items will be available has been the most scary part,2.3,3.666667,2.0,1.666667,4.666667,4.333333,4.333333,6.0
75740,5075,2020-04-01 11:59:16,EN,37,Male,"Some College, short continuing education or equivalent",Up to 12 years of school,Full time employed,United States,no,Oklahoma,Married/cohabiting,1.0,Yes,Isolated,1.0,0.0,,Program C,No,2.0,4.0,3.0,5.0,5.0,1.0,2.0,5.0,3.0,1.0,1.0,1.0,1.0,4.0,9.0,2.0,2.0,5.0,2.0,5.0,0.0,3.0,4.0,5.0,6.0,6.0,0.0,6.0,6.0,6.0,1.0,1.0,6.0,2.0,1.0,6.0,4.0,6.0,1.0,3.0,6.0,3.0,1.0,5.0,6.0,2.0,4.0,3.0,1.0,1.0,4.0,1.0,2.0,3.0,1.0,1.0,1.0,6.0,2.0,5.0,99.0,5.0,1.0,1.0,1.0,2.0,2.0,2.0,99.0,1.0,2.0,6.0,"I work from home, and am in a particularly good moment in my life financially, in my marriage, and just generally. I am very worried about COVID-19, but am also very educated. Our family started prepping early February, and were completely stocked for over a month in our homes before anyone else had even started. Our stocking up didn't affect anyone else, and now we are able to stay home and safe. However, my mother is severely immunocompromised, and didn't take this seriously until very late. She also is still continuing to leave her home (she lives on a 40 acre farm and could easily quarantine), thinking that sitting in the passenger seat is safe enough.  So, while personally, myself and immediate family are safe, prepared, knowledgeable, and financially secure -- that's not true for everyone I love.",6.0,6.0,6.0,6.0,6.0,2.0,6.0,6.0,2.0,6.0,1.0,1.0,5.0,1.0,2.0,4.0,5.0,5.0,5.0,5.0,6.0,5.0,1.0,3.0,1.0,5.0,"There is some questions that focus on ""information from the government"". While I do pay attention to this, a lot of it is misinformation, so I don't rely on it for accuracy unfortunately.",1.0,6.0,6.0,6.0,3.0,1.0,"Sorry, what I put in the last box should be here. Not sure if it will show up correctly, so I will paste here for you:  I work from home, and am in a particularly good moment in my life financially, in my marriage, and just generally. I am very worried about COVID-19, but am also very educated. Our family started prepping early February, and were completely stocked for over a month in our homes before anyone else had even started. Our stocking up didn't affect anyone else, and now we are able to stay home and safe. However, my mother is severely immunocompromised, and didn't take this seriously until very late. She also is still continuing to leave her home (she lives on a 40 acre farm and could easily quarantine), thinking that sitting in the passenger seat is safe enough.  So, while personally, myself and immediate family are safe, prepared, knowledgeable, and financially secure -- that's not true for everyone I love.",2.1,1.0,1.333333,5.333333,4.0,5.666667,2.666667,5.2
75751,1022,2020-04-01 10:50:47,EN,31,Female,"College degree, bachelor, master",Up to 12 years of school,Student,United States,no,Pennsylvania,Single,0.0,Yes,Isolated,0.0,0.0,Program A,,Not sure,2.0,4.0,5.0,3.0,2.0,4.0,4.0,2.0,3.0,4.0,4.0,2.0,5.0,2.0,3.0,1.0,2.0,2.0,1.0,3.0,,5.0,6.0,5.0,6.0,6.0,0.0,5.0,5.0,5.0,4.0,4.0,4.0,5.0,5.0,1.0,2.0,1.0,5.0,5.0,5.0,4.0,5.0,1.0,5.0,4.0,5.0,5.0,2.0,6.0,99.0,6.0,1.0,3.0,99.0,99.0,99.0,6.0,1.0,6.0,6.0,6.0,99.0,5.0,1.0,6.0,3.0,99.0,1.0,1.0,5.0,2.0,,6.0,5.0,5.0,4.0,5.0,5.0,5.0,5.0,5.0,6.0,4.0,1.0,6.0,2.0,5.0,4.0,1.0,5.0,6.0,5.0,2.0,4.0,2.0,6.0,1.0,4.0,,2.0,2.0,4.0,5.0,1.0,2.0,,3.5,3.666667,5.333333,1.666667,4.666667,2.666667,3.666667,5.1
75840,248,2020-04-02 10:29:52,EN,44,Male,PhD/Doctorate,Some College or equivalent,Full time employed,United States,no,Mississippi,Married/cohabiting,2.0,Yes,Life carries on with minor changes,2.0,1.0,Program A,,,,,,,,,,,,,,,,,,,,,,,,,,,,,,,,,,,,,,,,,,,,,,,,,,,,,,,,,,,,,,,,,,,,,,,,,,,,,,,,,,,,,,,,,,,,,,,,,,,,,,,,,,,,,,,,,,,,,
75864,1039,2020-04-01 10:41:20,EN,24,Female,"College degree, bachelor, master",Up to 12 years of school,Student,United States,no,California,Married/cohabiting,0.0,Yes,Isolated,3.0,2.0,,Program D,No,4.0,3.0,5.0,2.0,1.0,4.0,3.0,2.0,5.0,4.0,3.0,3.0,4.0,2.0,7.0,4.0,5.0,4.0,5.0,8.0,4.0,5.0,6.0,6.0,6.0,5.0,3.0,5.0,5.0,5.0,4.0,2.0,1.0,5.0,4.0,3.0,5.0,4.0,4.0,4.0,5.0,4.0,2.0,3.0,5.0,4.0,3.0,5.0,5.0,6.0,99.0,6.0,3.0,5.0,2.0,5.0,5.0,5.0,3.0,5.0,6.0,5.0,6.0,5.0,4.0,5.0,5.0,5.0,5.0,3.0,6.0,2.0,,5.0,5.0,5.0,5.0,5.0,5.0,4.0,5.0,5.0,5.0,4.0,5.0,5.0,5.0,3.0,5.0,5.0,5.0,6.0,4.0,2.0,4.0,2.0,6.0,3.0,4.0,,4.0,5.0,4.0,4.0,5.0,2.0,,4.1,3.333333,4.333333,4.0,4.333333,4.333333,4.333333,4.9
75867,813,2020-04-01 10:37:27,EN,68,Female,"College degree, bachelor, master",Up to 12 years of school,Retired,United States,no,Michigan,Married/cohabiting,0.0,Yes,Isolated,2.0,0.0,Program A,,No,2.0,2.0,3.0,5.0,5.0,2.0,5.0,5.0,1.0,2.0,3.0,2.0,3.0,7.0,10.0,3.0,7.0,8.0,9.0,10.0,1.0,6.0,6.0,6.0,6.0,6.0,0.0,5.0,5.0,6.0,1.0,3.0,3.0,4.0,2.0,5.0,4.0,4.0,2.0,4.0,6.0,6.0,2.0,5.0,6.0,6.0,4.0,6.0,2.0,99.0,99.0,99.0,3.0,3.0,99.0,1.0,99.0,5.0,3.0,6.0,6.0,6.0,99.0,2.0,2.0,3.0,4.0,2.0,4.0,1.0,3.0,2.0,,6.0,6.0,6.0,6.0,5.0,6.0,6.0,6.0,5.0,6.0,4.0,2.0,6.0,5.0,6.0,5.0,2.0,2.0,4.0,3.0,4.0,5.0,2.0,4.0,1.0,4.0,,4.0,5.0,5.0,3.0,3.0,5.0,,1.6,2.666667,2.666667,4.333333,5.333333,5.333333,5.0,5.8
75916,1197,2020-04-01 10:40:22,EN,57,Male,"College degree, bachelor, master",Up to 12 years of school,Full time employed,United States,no,Iowa,Married/cohabiting,2.0,Yes,Isolated,2.0,0.0,,Program C,No,1.0,2.0,2.0,5.0,2.0,1.0,5.0,4.0,1.0,2.0,3.0,2.0,3.0,6.0,8.0,3.0,5.0,7.0,6.0,7.0,1.0,6.0,6.0,5.0,6.0,6.0,1.0,6.0,5.0,5.0,1.0,2.0,4.0,2.0,1.0,5.0,2.0,2.0,5.0,6.0,6.0,6.0,4.0,5.0,5.0,5.0,2.0,6.0,1.0,1.0,5.0,2.0,4.0,2.0,99.0,1.0,99.0,5.0,4.0,5.0,5.0,5.0,1.0,1.0,1.0,2.0,2.0,2.0,2.0,1.0,6.0,1.0,,5.0,5.0,5.0,6.0,6.0,5.0,5.0,6.0,5.0,5.0,1.0,5.0,5.0,1.0,4.0,4.0,1.0,1.0,1.0,4.0,5.0,2.0,4.0,2.0,1.0,1.0,,4.0,5.0,4.0,5.0,4.0,2.0,,1.7,2.666667,1.666667,2.0,6.0,4.333333,5.333333,5.3
75932,1103,2020-04-01 10:37:23,FR,28,Female,"College degree, bachelor, master",College degree,Full time employed,United States,yes,New york stAte,Married/cohabiting,0.0,Yes,Life carries on with minor changes,1.0,0.0,Program A,,Not sure,1.0,3.0,3.0,3.0,4.0,3.0,3.0,3.0,2.0,2.0,2.0,1.0,3.0,9.0,8.0,4.0,4.0,4.0,2.0,8.0,4.0,4.0,5.0,4.0,6.0,6.0,0.0,6.0,5.0,6.0,2.0,3.0,3.0,2.0,4.0,3.0,5.0,4.0,4.0,6.0,5.0,4.0,,4.0,4.0,2.0,2.0,5.0,2.0,5.0,99.0,6.0,3.0,2.0,1.0,1.0,99.0,6.0,2.0,5.0,5.0,5.0,1.0,1.0,4.0,3.0,2.0,5.0,3.0,2.0,2.0,3.0,,5.0,5.0,5.0,5.0,5.0,4.0,4.0,5.0,4.0,6.0,4.0,1.0,6.0,1.0,4.0,4.0,1.0,1.0,4.0,4.0,3.0,5.0,4.0,6.0,1.0,4.0,,5.0,5.0,5.0,4.0,3.0,3.0,,2.5,2.0,3.333333,4.0,5.0,4.0,4.0,4.8
75933,1002,2020-04-01 10:35:37,EN,37,Female,"College degree, bachelor, master",Some College or equivalent,Full time employed,United States,no,Colorado,Married/cohabiting,0.0,Yes,Isolated,2.0,0.0,Program B,,No,3.0,2.0,2.0,5.0,4.0,3.0,4.0,4.0,2.0,2.0,2.0,2.0,3.0,6.0,8.0,5.0,4.0,6.0,6.0,8.0,4.0,4.0,4.0,4.0,4.0,4.0,3.0,3.0,5.0,5.0,2.0,3.0,1.0,2.0,3.0,5.0,2.0,2.0,5.0,6.0,5.0,5.0,3.0,6.0,5.0,4.0,3.0,5.0,4.0,2.0,99.0,2.0,2.0,4.0,99.0,2.0,99.0,1.0,3.0,3.0,2.0,3.0,3.0,2.0,2.0,2.0,5.0,3.0,4.0,3.0,4.0,2.0,,6.0,5.0,5.0,5.0,6.0,6.0,6.0,6.0,6.0,5.0,1.0,3.0,5.0,2.0,5.0,4.0,2.0,2.0,2.0,3.0,1.0,2.0,4.0,4.0,2.0,3.0,,2.0,3.0,3.0,2.0,3.0,3.0,I am beginning a practice of stoicism and I am studying positive psychology/mindfulness.  These 2 things are perhaps giving me more adequate tools for dealing with the stress/anxiety over Corona Virus.,2.1,2.333333,2.333333,2.0,5.333333,5.0,4.333333,5.6
76022,2475,2020-04-01 10:53:40,EN,50,Male,"College degree, bachelor, master",College degree,Full time employed,United States,no,PA,Married/cohabiting,3.0,Yes,Life carries on with minor changes,1.0,1.0,Program B,,No,2.0,2.0,3.0,5.0,4.0,1.0,5.0,5.0,2.0,2.0,1.0,2.0,3.0,4.0,8.0,4.0,5.0,6.0,7.0,6.0,5.0,5.0,5.0,5.0,5.0,5.0,3.0,5.0,5.0,5.0,2.0,3.0,5.0,2.0,2.0,5.0,5.0,5.0,2.0,3.0,5.0,4.0,4.0,5.0,5.0,5.0,2.0,5.0,3.0,5.0,2.0,2.0,5.0,5.0,2.0,2.0,5.0,5.0,2.0,5.0,5.0,5.0,3.0,2.0,2.0,2.0,5.0,2.0,4.0,2.0,5.0,5.0,,2.0,2.0,2.0,2.0,2.0,3.0,2.0,5.0,2.0,6.0,2.0,2.0,4.0,2.0,3.0,2.0,2.0,2.0,4.0,4.0,2.0,2.0,5.0,2.0,2.0,2.0,,2.0,4.0,4.0,2.0,4.0,5.0,No,1.7,2.0,2.0,5.0,4.0,4.333333,5.0,2.8
76055,1035,2020-04-01 10:27:03,EN,29,Male,"College degree, bachelor, master",Up to 12 years of school,Full time employed,United States,no,New York,Single,0.0,Yes,Isolated,1.0,0.0,Program A,,No,3.0,2.0,3.0,1.0,4.0,1.0,4.0,3.0,5.0,2.0,2.0,1.0,1.0,5.0,9.0,1.0,2.0,5.0,7.0,7.0,0.0,4.0,6.0,6.0,6.0,6.0,0.0,6.0,6.0,6.0,1.0,2.0,5.0,2.0,1.0,6.0,6.0,6.0,1.0,6.0,6.0,6.0,6.0,5.0,6.0,6.0,4.0,6.0,2.0,2.0,99.0,4.0,2.0,4.0,99.0,3.0,99.0,6.0,2.0,5.0,5.0,6.0,3.0,2.0,5.0,99.0,5.0,2.0,4.0,1.0,5.0,1.0,,6.0,6.0,6.0,6.0,6.0,6.0,6.0,6.0,6.0,6.0,4.0,6.0,6.0,5.0,5.0,6.0,6.0,6.0,6.0,5.0,5.0,3.0,2.0,4.0,1.0,4.0,,6.0,6.0,6.0,6.0,6.0,1.0,,2.8,1.333333,1.333333,6.0,6.0,4.0,5.0,6.0
76063,1388,2020-04-01 10:32:26,FR,35,Male,PhD/Doctorate,PhD/Doctorate,Full time employed,United States,yes,,Single,0.0,Yes,Isolated,1.0,0.0,,Program C,No,4.0,2.0,4.0,3.0,4.0,3.0,4.0,4.0,3.0,1.0,4.0,2.0,3.0,3.0,8.0,3.0,5.0,4.0,3.0,8.0,7.0,3.0,6.0,4.0,3.0,4.0,3.0,5.0,6.0,6.0,4.0,5.0,4.0,4.0,3.0,5.0,5.0,5.0,1.0,6.0,5.0,4.0,2.0,5.0,5.0,5.0,3.0,6.0,6.0,2.0,99.0,4.0,5.0,6.0,1.0,5.0,99.0,5.0,3.0,5.0,5.0,5.0,2.0,6.0,2.0,6.0,5.0,5.0,5.0,2.0,6.0,6.0,,6.0,5.0,6.0,4.0,5.0,6.0,6.0,6.0,6.0,5.0,2.0,4.0,6.0,4.0,6.0,2.0,2.0,2.0,5.0,4.0,2.0,2.0,5.0,4.0,2.0,4.0,,6.0,6.0,6.0,6.0,4.0,3.0,,2.6,3.0,3.0,5.333333,5.0,5.0,5.0,5.5
76068,1060,2020-04-02 10:26:32,BS,41,Female,"College degree, bachelor, master",Up to 12 years of school,Full time employed,United States,yes,,Married/cohabiting,0.0,No,Isolated,1.0,0.0,,Program D,No,2.0,2.0,3.0,4.0,3.0,2.0,3.0,3.0,4.0,3.0,3.0,1.0,2.0,3.0,8.0,3.0,5.0,6.0,3.0,7.0,7.0,3.0,4.0,3.0,5.0,4.0,3.0,5.0,6.0,6.0,1.0,4.0,4.0,4.0,4.0,4.0,4.0,5.0,2.0,5.0,6.0,5.0,2.0,5.0,4.0,5.0,1.0,5.0,4.0,3.0,99.0,5.0,4.0,6.0,2.0,2.0,99.0,5.0,4.0,4.0,5.0,6.0,3.0,3.0,1.0,2.0,5.0,2.0,3.0,2.0,3.0,5.0,,5.0,5.0,5.0,5.0,5.0,5.0,5.0,5.0,5.0,5.0,4.0,5.0,5.0,5.0,5.0,4.0,2.0,2.0,5.0,5.0,5.0,5.0,5.0,5.0,2.0,5.0,,2.0,5.0,4.0,2.0,4.0,2.0,,2.7,2.0,3.666667,4.666667,5.333333,4.666667,5.333333,5.0
76094,1183,2020-04-01 10:26:19,EN,65,Male,"College degree, bachelor, master",Up to 12 years of school,Full time employed,United States,no,Pa,Married/cohabiting,0.0,No,Life carries on with minor changes,1.0,0.0,Program B,,Yes,2.0,3.0,3.0,4.0,2.0,1.0,3.0,4.0,3.0,1.0,2.0,1.0,3.0,5.0,7.0,3.0,3.0,3.0,3.0,3.0,6.0,5.0,5.0,5.0,6.0,4.0,5.0,5.0,4.0,4.0,2.0,2.0,2.0,5.0,2.0,6.0,6.0,6.0,1.0,5.0,4.0,4.0,4.0,3.0,4.0,5.0,2.0,5.0,2.0,4.0,2.0,2.0,4.0,4.0,2.0,99.0,99.0,6.0,4.0,2.0,4.0,2.0,2.0,4.0,2.0,2.0,5.0,2.0,5.0,2.0,5.0,99.0,,4.0,5.0,5.0,5.0,4.0,5.0,2.0,5.0,4.0,4.0,2.0,2.0,4.0,2.0,2.0,5.0,1.0,1.0,6.0,2.0,4.0,3.0,4.0,4.0,2.0,2.0,,4.0,4.0,2.0,3.0,4.0,1.0,Worry about businesses beyond this crisis.   Will they survey.  And the government handing out too Much stimulus which will later hurt us. Politicians and their pork barrel non sense,2.4,2.0,2.666667,6.0,4.333333,3.333333,5.0,4.3
76124,169,2020-04-02 10:07:12,EN,39,Female,"College degree, bachelor, master",Some College or equivalent,Self-employed,United States,no,Oregon,Married/cohabiting,2.0,Yes,Isolated,1.0,2.0,,,,,,,,,,,,,,,,,,,,,,,,,,,,,,,,,,,,,,,,,,,,,,,,,,,,,,,,,,,,,,,,,,,,,,,,,,,,,,,,,,,,,,,,,,,,,,,,,,,,,,,,,,,,,,,,,,,,,,
76129,1559,2020-04-01 10:29:25,EN,67,Female,"College degree, bachelor, master",College degree,Retired,United States,no,Nebraska,Divorced/widowed,1.0,No,Life carries on with minor changes,1.0,0.0,Program A,,No,2.0,4.0,3.0,4.0,3.0,4.0,4.0,2.0,1.0,2.0,3.0,2.0,3.0,7.0,10.0,6.0,10.0,6.0,6.0,6.0,5.0,5.0,5.0,5.0,6.0,6.0,4.0,6.0,5.0,5.0,1.0,3.0,6.0,2.0,2.0,5.0,5.0,3.0,5.0,5.0,6.0,6.0,5.0,6.0,5.0,5.0,2.0,5.0,5.0,99.0,99.0,99.0,4.0,4.0,99.0,1.0,99.0,6.0,5.0,4.0,2.0,2.0,99.0,2.0,1.0,5.0,4.0,1.0,1.0,1.0,4.0,6.0,,3.0,4.0,2.0,4.0,4.0,4.0,4.0,5.0,5.0,4.0,6.0,2.0,6.0,1.0,5.0,5.0,1.0,1.0,5.0,4.0,4.0,6.0,4.0,4.0,1.0,6.0,,6.0,6.0,5.0,2.0,5.0,3.0,Delay in medical needs for myself and disabled son.,2.7,2.666667,2.0,3.333333,5.666667,4.333333,5.0,3.9
76140,1498,2020-04-01 10:27:37,EN,71,Male,"College degree, bachelor, master",Up to 12 years of school,Full time employed,United States,no,Illinois,Married/cohabiting,0.0,Yes,Isolated,1.0,,Program A,,No,2.0,1.0,3.0,5.0,3.0,1.0,4.0,4.0,5.0,1.0,1.0,2.0,3.0,4.0,8.0,2.0,6.0,7.0,4.0,8.0,1.0,6.0,6.0,6.0,6.0,6.0,1.0,6.0,6.0,6.0,2.0,6.0,4.0,4.0,2.0,3.0,5.0,5.0,2.0,4.0,5.0,4.0,2.0,5.0,5.0,3.0,3.0,5.0,1.0,4.0,2.0,2.0,2.0,3.0,1.0,1.0,,4.0,2.0,5.0,4.0,4.0,4.0,2.0,1.0,3.0,4.0,2.0,1.0,1.0,5.0,1.0,,6.0,5.0,4.0,6.0,6.0,5.0,6.0,6.0,5.0,6.0,4.0,3.0,6.0,2.0,5.0,5.0,1.0,1.0,5.0,3.0,4.0,4.0,4.0,5.0,3.0,4.0,,4.0,5.0,1.0,5.0,6.0,3.0,,2.1,2.0,3.333333,5.0,4.333333,5.0,4.0,5.5
76193,609,2020-04-02 10:07:18,FA,42,Female,PhD/Doctorate,Up to 12 years of school,Self-employed,United States,yes,"Rockville, Maryland",Single,0.0,No,Isolated,1.0,0.0,Program B,,,,,,,,,,,,,,,,,,,,,,,,,,,,,,,,,,,,,,,,,,,,,,,,,,,,,,,,,,,,,,,,,,,,,,,,,,,,,,,,,,,,,,,,,,,,,,,,,,,,,,,,,,,,,,,,,,,,,
76201,976,2020-04-01 10:11:56,EN,26,Female,"College degree, bachelor, master",College degree,Student,United States,yes,PA,Single,0.0,Not sure,Isolated,1.0,0.0,,Program D,No,4.0,4.0,4.0,2.0,3.0,3.0,3.0,2.0,3.0,3.0,3.0,3.0,2.0,5.0,8.0,2.0,4.0,6.0,5.0,8.0,4.0,4.0,3.0,4.0,5.0,6.0,2.0,4.0,6.0,6.0,2.0,4.0,4.0,4.0,4.0,4.0,2.0,3.0,5.0,4.0,5.0,5.0,2.0,5.0,5.0,6.0,1.0,6.0,3.0,3.0,99.0,6.0,4.0,2.0,99.0,1.0,99.0,5.0,2.0,3.0,4.0,5.0,5.0,3.0,4.0,4.0,2.0,2.0,3.0,2.0,5.0,5.0,,5.0,5.0,4.0,2.0,4.0,5.0,3.0,4.0,5.0,4.0,2.0,4.0,4.0,1.0,3.0,2.0,1.0,1.0,4.0,4.0,4.0,5.0,5.0,4.0,1.0,3.0,,4.0,5.0,5.0,4.0,4.0,4.0,Its quite stressful to see peoples hate toward each other/other countries in this time of crisis. Its also stressful to see that some people/media/government officials use this time to promote their interest and agenda without concerning about the really problems and peoples health and safety.,3.5,2.666667,3.666667,2.333333,4.666667,5.0,6.0,4.1
76226,997,2020-04-01 10:10:26,EN,50,Male,"College degree, bachelor, master",Up to 12 years of school,Full time employed,United States,no,Oklahoma,Married/cohabiting,0.0,Yes,Isolated,0.0,0.0,Program B,,No,2.0,4.0,3.0,4.0,4.0,3.0,4.0,4.0,5.0,2.0,1.0,2.0,3.0,6.0,9.0,4.0,3.0,6.0,1.0,10.0,1.0,4.0,6.0,5.0,6.0,6.0,0.0,5.0,5.0,6.0,1.0,2.0,4.0,3.0,3.0,5.0,4.0,3.0,3.0,6.0,5.0,5.0,5.0,3.0,3.0,5.0,3.0,5.0,2.0,1.0,99.0,2.0,5.0,3.0,99.0,2.0,99.0,4.0,5.0,6.0,6.0,6.0,2.0,2.0,2.0,4.0,2.0,2.0,2.0,2.0,4.0,2.0,Fear the conservatives are self serving and not doing what is necessary to save lives.,4.0,5.0,4.0,5.0,5.0,5.0,5.0,6.0,5.0,5.0,3.0,1.0,4.0,1.0,5.0,5.0,6.0,6.0,6.0,6.0,5.0,5.0,4.0,5.0,1.0,4.0,In an organizing 3D printer owners to produce PPE for local hospitals which they accept for use in critical areas.,2.0,4.0,5.0,3.0,3.0,2.0,"A president who lies constantly and blatantly is not encouraging anyone same to be calm. A governor who wont take action to implement effective mitigation until a case is confirmed, while limiting tests to only severe cases, is not increasing calm.",2.7,2.0,2.666667,3.666667,5.333333,2.666667,4.666667,4.9
76346,238,2020-04-02 09:45:52,LT,22,Female,"College degree, bachelor, master",College degree,Student,United States,yes,Florida,Single,0.0,Yes,Life carries on with minor changes,2.0,0.0,Program B,,No,3.0,2.0,3.0,3.0,2.0,3.0,4.0,3.0,1.0,1.0,1.0,2.0,2.0,,,,,,,,,,,,,,,,,,,,,,,,,,,,,,,,,,,,,,,,,,,,,,,,,,,,,,,,,,,,,,,,,,,,,,,,,,,,,,,,,,,,,,,,,,,,,,,2.5,1.666667,,,,,,
76384,800,2020-04-01 09:50:41,EN,32,Female,Up to 12 years of school,Up to 12 years of school,Not employed,United States,no,,Single,3.0,No,Isolated,1.0,3.0,Program A,,No,5.0,5.0,5.0,1.0,1.0,4.0,2.0,3.0,4.0,5.0,3.0,5.0,5.0,2.0,5.0,0.0,0.0,0.0,8.0,8.0,0.0,6.0,6.0,6.0,6.0,6.0,5.0,6.0,6.0,6.0,2.0,1.0,2.0,5.0,4.0,5.0,6.0,3.0,3.0,4.0,5.0,6.0,3.0,5.0,5.0,5.0,4.0,6.0,3.0,99.0,3.0,1.0,5.0,5.0,1.0,2.0,5.0,5.0,2.0,6.0,6.0,5.0,2.0,3.0,2.0,6.0,6.0,2.0,2.0,1.0,6.0,2.0,,6.0,6.0,5.0,4.0,6.0,5.0,6.0,6.0,5.0,6.0,1.0,1.0,5.0,1.0,1.0,6.0,1.0,1.0,6.0,2.0,5.0,3.0,2.0,4.0,1.0,3.0,,1.0,4.0,6.0,5.0,1.0,1.0,,4.5,4.333333,3.666667,4.333333,5.0,4.666667,4.666667,5.5
76400,577,2020-04-02 09:45:14,EN,25,Female,"College degree, bachelor, master",Up to 12 years of school,Full time employed,United States,no,New york,Single,0.0,Yes,Life carries on with minor changes,1.0,0.0,Program A,,Yes,3.0,1.0,3.0,4.0,3.0,2.0,5.0,5.0,1.0,1.0,1.0,1.0,2.0,5.0,10.0,3.0,5.0,6.0,3.0,5.0,1.0,3.0,6.0,5.0,6.0,6.0,1.0,6.0,6.0,6.0,2.0,4.0,6.0,5.0,1.0,6.0,6.0,5.0,3.0,6.0,6.0,6.0,2.0,6.0,6.0,4.0,5.0,4.0,1.0,1.0,1.0,1.0,3.0,3.0,99.0,1.0,1.0,5.0,3.0,5.0,6.0,5.0,1.0,2.0,5.0,2.0,2.0,4.0,4.0,1.0,4.0,1.0,,,,,,,,,,,,,,,,,,,,,,,,,,,,,,,,,,,,1.8,1.333333,2.333333,5.0,6.0,5.666667,3.333333,
76412,16922,2020-04-01 14:16:03,EN,36,Female,PhD/Doctorate,College degree,Full time employed,United States,no,Idaho,Married/cohabiting,0.0,Yes,Isolated,1.0,0.0,,Program C,Yes,3.0,3.0,5.0,4.0,3.0,3.0,3.0,3.0,3.0,3.0,2.0,1.0,4.0,7.0,9.0,5.0,5.0,6.0,6.0,8.0,3.0,5.0,6.0,6.0,6.0,6.0,1.0,6.0,6.0,6.0,2.0,4.0,5.0,4.0,6.0,2.0,4.0,3.0,4.0,5.0,5.0,6.0,2.0,5.0,6.0,5.0,3.0,5.0,4.0,4.0,99.0,4.0,4.0,5.0,99.0,4.0,99.0,6.0,5.0,6.0,6.0,6.0,4.0,5.0,2.0,4.0,5.0,1.0,2.0,1.0,5.0,5.0,,6.0,6.0,6.0,6.0,6.0,6.0,6.0,6.0,6.0,6.0,4.0,1.0,5.0,1.0,4.0,4.0,2.0,5.0,5.0,5.0,5.0,5.0,6.0,4.0,2.0,5.0,,3.0,4.0,4.0,5.0,5.0,3.0,"As an Asian-American, I am also concerned about the rise in racism, xenophobia, and aggression (verbal, physical attacks) toward Asians and Asian-Americans. This makes me more nervous than usual. Started distancing and staying at home on 3/14, my partner (who is white) and I walk outside each day with our dog but otherwise stay in. I've yet to be out of the house alone, and feel a little unsure of doing so even after distancing is over.",3.1,2.333333,5.0,3.333333,5.333333,5.333333,4.666667,6.0
76444,491,2020-04-02 09:40:03,EN,37,Female,"College degree, bachelor, master",Up to 12 years of school,Part time employed,United States,no,Wisconsin,Married/cohabiting,6.0,Yes,Isolated,2.0,6.0,,Program C,No,4.0,3.0,5.0,3.0,2.0,3.0,3.0,1.0,4.0,4.0,3.0,2.0,4.0,7.0,9.0,4.0,9.0,9.0,7.0,9.0,4.0,4.0,5.0,5.0,5.0,5.0,3.0,6.0,6.0,5.0,5.0,2.0,2.0,5.0,4.0,4.0,5.0,6.0,1.0,5.0,6.0,6.0,2.0,6.0,6.0,4.0,3.0,4.0,5.0,2.0,2.0,2.0,5.0,5.0,5.0,3.0,6.0,5.0,2.0,4.0,4.0,5.0,4.0,2.0,5.0,6.0,5.0,5.0,3.0,2.0,6.0,2.0,,5.0,5.0,5.0,5.0,5.0,5.0,6.0,6.0,5.0,5.0,2.0,1.0,5.0,1.0,5.0,5.0,1.0,1.0,5.0,4.0,2.0,5.0,5.0,5.0,6.0,1.0,,,,,,,,,3.8,3.0,4.0,5.666667,5.666667,5.666667,4.0,5.2
76474,1276,2020-04-01 09:50:39,EN,28,Male,"College degree, bachelor, master",Up to 9 years of school,Full time employed,United States,no,New York,Single,0.0,Yes,Isolated,2.0,0.0,,Program D,Not sure,5.0,4.0,4.0,4.0,3.0,3.0,5.0,3.0,4.0,3.0,5.0,5.0,4.0,4.0,5.0,2.0,1.0,2.0,3.0,2.0,,5.0,6.0,5.0,3.0,2.0,0.0,5.0,4.0,4.0,3.0,2.0,1.0,4.0,6.0,4.0,5.0,5.0,1.0,2.0,6.0,3.0,5.0,3.0,2.0,4.0,5.0,3.0,6.0,3.0,99.0,5.0,5.0,6.0,1.0,3.0,99.0,5.0,3.0,5.0,6.0,5.0,1.0,5.0,4.0,6.0,5.0,4.0,5.0,3.0,6.0,6.0,,4.0,4.0,4.0,4.0,5.0,4.0,3.0,4.0,3.0,3.0,2.0,5.0,6.0,5.0,6.0,4.0,3.0,3.0,4.0,2.0,2.0,3.0,1.0,4.0,2.0,3.0,,4.0,3.0,3.0,4.0,5.0,1.0,,3.2,4.666667,4.333333,5.333333,3.666667,2.333333,3.0,3.8
76489,3343,2020-04-02 10:24:21,EN,40,Female,"College degree, bachelor, master",Some College or equivalent,Full time employed,United States,yes,California,Married/cohabiting,0.0,Yes,Isolated,1.0,0.0,,Program D,No,3.0,2.0,3.0,4.0,4.0,2.0,4.0,4.0,2.0,1.0,1.0,2.0,3.0,5.0,8.0,2.0,6.0,7.0,10.0,10.0,3.0,4.0,6.0,5.0,6.0,6.0,4.0,6.0,6.0,6.0,1.0,2.0,4.0,4.0,5.0,3.0,6.0,5.0,3.0,4.0,6.0,6.0,1.0,6.0,6.0,6.0,1.0,5.0,2.0,2.0,99.0,2.0,2.0,5.0,1.0,1.0,99.0,6.0,5.0,5.0,5.0,6.0,1.0,2.0,3.0,1.0,2.0,2.0,1.0,1.0,2.0,4.0,,6.0,5.0,6.0,6.0,6.0,5.0,6.0,6.0,5.0,6.0,2.0,2.0,6.0,1.0,5.0,5.0,1.0,1.0,5.0,2.0,2.0,5.0,4.0,5.0,1.0,5.0,,5.0,6.0,2.0,5.0,4.0,1.0,,2.1,2.0,4.333333,5.0,5.333333,6.0,5.666667,5.7
76530,562,2020-04-01 09:33:11,EN,26,Female,"College degree, bachelor, master",Up to 6 years of school,Full time employed,United States,no,Massachusetts,Single,0.0,Yes,Life carries on with minor changes,,,,Program D,No,5.0,5.0,5.0,2.0,1.0,5.0,2.0,1.0,5.0,5.0,3.0,4.0,3.0,5.0,6.0,4.0,5.0,5.0,5.0,5.0,3.0,5.0,6.0,6.0,5.0,5.0,2.0,4.0,3.0,2.0,5.0,1.0,4.0,6.0,6.0,1.0,3.0,1.0,5.0,2.0,5.0,5.0,5.0,3.0,5.0,2.0,2.0,5.0,99.0,5.0,99.0,6.0,4.0,5.0,99.0,6.0,99.0,5.0,6.0,6.0,6.0,6.0,99.0,99.0,6.0,6.0,6.0,5.0,5.0,2.0,6.0,1.0,,6.0,5.0,5.0,6.0,6.0,6.0,6.0,6.0,5.0,6.0,5.0,6.0,6.0,3.0,6.0,3.0,6.0,6.0,4.0,5.0,3.0,4.0,6.0,6.0,5.0,4.0,,5.0,5.0,5.0,5.0,5.0,1.0,,4.8,3.333333,6.0,2.0,4.0,3.333333,4.0,5.7
76559,213,2020-04-02 09:25:01,SME,60,Female,"College degree, bachelor, master",,Part time employed,United States,yes,Californis,Married/cohabiting,0.0,Yes,Life carries on as usual,3.0,0.0,,,,,,,,,,,,,,,,,,,,,,,,,,,,,,,,,,,,,,,,,,,,,,,,,,,,,,,,,,,,,,,,,,,,,,,,,,,,,,,,,,,,,,,,,,,,,,,,,,,,,,,,,,,,,,,,,,,,,,
76601,1108,2020-04-01 09:35:34,EN,44,Female,"College degree, bachelor, master",College degree,Full time employed,United States,no,ID,Married/cohabiting,2.0,Yes,Isolated,2.0,0.0,Program A,,No,3.0,2.0,3.0,4.0,3.0,2.0,5.0,4.0,3.0,1.0,5.0,2.0,3.0,7.0,9.0,4.0,5.0,4.0,5.0,7.0,3.0,4.0,6.0,3.0,3.0,4.0,2.0,6.0,6.0,6.0,2.0,2.0,4.0,4.0,2.0,3.0,6.0,6.0,2.0,4.0,3.0,4.0,2.0,5.0,6.0,1.0,1.0,5.0,1.0,5.0,2.0,2.0,3.0,5.0,1.0,2.0,99.0,5.0,2.0,4.0,6.0,6.0,4.0,5.0,4.0,5.0,4.0,2.0,2.0,2.0,5.0,1.0,,6.0,5.0,5.0,6.0,5.0,5.0,6.0,5.0,5.0,6.0,2.0,2.0,6.0,1.0,5.0,4.0,1.0,1.0,3.0,3.0,2.0,2.0,4.0,2.0,2.0,2.0,,5.0,5.0,5.0,6.0,5.0,4.0,,2.2,3.333333,3.333333,5.666667,3.666667,5.333333,4.0,5.4
76602,593,2020-04-02 09:27:48,EN,31,Female,PhD/Doctorate,PhD/Doctorate,Student,United States,no,NJ,Single,0.0,Yes,Isolated,3.0,0.0,Program A,,No,2.0,2.0,3.0,5.0,3.0,2.0,4.0,3.0,3.0,2.0,2.0,3.0,2.0,8.0,10.0,2.0,5.0,8.0,2.0,7.0,2.0,5.0,6.0,6.0,5.0,5.0,1.0,6.0,5.0,5.0,1.0,4.0,4.0,4.0,2.0,5.0,6.0,5.0,5.0,5.0,5.0,5.0,2.0,5.0,5.0,4.0,3.0,5.0,2.0,5.0,99.0,1.0,1.0,3.0,1.0,1.0,99.0,4.0,4.0,5.0,4.0,4.0,6.0,2.0,1.0,2.0,2.0,2.0,2.0,1.0,4.0,1.0,,,,,,,,,,,,,,,,,,,,,,,,,,,,,,,,,,,,2.3,2.333333,2.666667,4.333333,5.0,5.0,4.333333,
76614,795,2020-04-01 09:29:54,LT,29,Male,"College degree, bachelor, master",College degree,Full time employed,United States,yes,NJ,Married/cohabiting,0.0,Yes,Life carries on with minor changes,0.0,0.0,,Program C,No,2.0,2.0,2.0,4.0,2.0,2.0,4.0,5.0,2.0,1.0,4.0,2.0,3.0,8.0,10.0,8.0,8.0,7.0,7.0,9.0,9.0,2.0,5.0,4.0,6.0,6.0,5.0,6.0,6.0,6.0,2.0,5.0,5.0,5.0,4.0,5.0,4.0,3.0,6.0,5.0,5.0,5.0,1.0,4.0,5.0,5.0,4.0,5.0,2.0,6.0,1.0,1.0,5.0,4.0,1.0,5.0,5.0,6.0,4.0,5.0,4.0,5.0,1.0,1.0,1.0,6.0,99.0,3.0,3.0,2.0,5.0,4.0,,5.0,5.0,5.0,6.0,5.0,5.0,6.0,6.0,5.0,6.0,5.0,5.0,6.0,5.0,5.0,5.0,1.0,1.0,5.0,4.0,5.0,5.0,5.0,4.0,1.0,5.0,,5.0,5.0,5.0,5.0,5.0,4.0,,2.0,3.0,3.666667,2.666667,5.0,5.0,4.333333,5.4
76618,1516,2020-04-01 09:41:35,EN,55,Female,"Some College, short continuing education or equivalent",Up to 12 years of school,Full time employed,United States,no,Indiana,Single,0.0,Yes,Isolated,0.0,0.0,Program A,,No,2.0,2.0,3.0,4.0,3.0,1.0,4.0,4.0,3.0,2.0,5.0,4.0,5.0,7.0,9.0,1.0,7.0,9.0,5.0,9.0,,6.0,6.0,6.0,6.0,6.0,0.0,5.0,5.0,5.0,1.0,1.0,2.0,5.0,2.0,6.0,3.0,1.0,6.0,5.0,6.0,5.0,4.0,5.0,5.0,6.0,4.0,6.0,6.0,99.0,99.0,6.0,2.0,6.0,1.0,99.0,99.0,5.0,2.0,6.0,5.0,5.0,99.0,2.0,2.0,6.0,4.0,5.0,5.0,4.0,5.0,99.0,,5.0,5.0,5.0,5.0,5.0,5.0,5.0,5.0,5.0,5.0,1.0,6.0,5.0,5.0,5.0,6.0,4.0,1.0,5.0,5.0,4.0,5.0,3.0,5.0,1.0,1.0,,1.0,6.0,6.0,2.0,2.0,5.0,,2.2,4.666667,2.666667,1.666667,5.333333,4.333333,5.0,5.0
76634,871,2020-04-01 09:29:04,EN,64,Male,"College degree, bachelor, master",College degree,Full time employed,United States,no,new york,Married/cohabiting,0.0,Yes,Isolated,3.0,0.0,,Program D,Not sure,1.0,1.0,3.0,5.0,3.0,1.0,1.0,5.0,3.0,1.0,1.0,3.0,3.0,5.0,8.0,2.0,,,5.0,5.0,1.0,6.0,6.0,6.0,5.0,5.0,0.0,6.0,6.0,6.0,2.0,2.0,4.0,3.0,3.0,5.0,4.0,3.0,5.0,5.0,5.0,5.0,4.0,4.0,5.0,5.0,1.0,6.0,1.0,4.0,5.0,3.0,4.0,4.0,99.0,1.0,99.0,4.0,5.0,6.0,4.0,4.0,1.0,2.0,1.0,3.0,3.0,4.0,,5.0,6.0,1.0,,5.0,5.0,5.0,5.0,5.0,5.0,5.0,5.0,5.0,5.0,3.0,3.0,6.0,3.0,5.0,4.0,1.0,1.0,3.0,4.0,4.0,4.0,4.0,4.0,1.0,4.0,,4.0,4.0,5.0,3.0,1.0,4.0,,2.0,2.333333,2.666667,3.0,5.0,4.0,5.666667,5.0
76672,1217,2020-04-01 09:31:25,EN,42,Female,"College degree, bachelor, master",Some College or equivalent,Not employed,United States,no,Indiana,Divorced/widowed,0.0,Yes,Isolated,1.0,0.0,,Program C,Yes,1.0,3.0,3.0,3.0,1.0,3.0,1.0,3.0,3.0,2.0,5.0,1.0,2.0,5.0,7.0,0.0,5.0,8.0,8.0,8.0,1.0,5.0,6.0,6.0,6.0,6.0,0.0,6.0,6.0,6.0,1.0,3.0,1.0,5.0,5.0,4.0,,3.0,5.0,6.0,5.0,6.0,2.0,5.0,6.0,6.0,3.0,6.0,4.0,1.0,99.0,1.0,5.0,1.0,5.0,5.0,99.0,4.0,1.0,6.0,5.0,6.0,99.0,1.0,1.0,1.0,1.0,1.0,1.0,1.0,1.0,1.0,,3.0,1.0,4.0,1.0,1.0,1.0,4.0,4.0,2.0,1.0,2.0,1.0,4.0,1.0,5.0,4.0,1.0,1.0,4.0,4.0,3.0,4.0,4.0,4.0,6.0,4.0,,6.0,6.0,6.0,1.0,6.0,3.0,,3.1,2.666667,4.333333,2.5,5.666667,5.333333,5.333333,2.2
76731,1648,2020-04-01 09:33:29,FR,34,Female,PhD/Doctorate,PhD/Doctorate,Full time employed,United States,yes,France,Married/cohabiting,1.0,Yes,Isolated,1.0,1.0,Program B,,No,2.0,3.0,5.0,3.0,4.0,5.0,3.0,3.0,3.0,2.0,1.0,2.0,2.0,6.0,8.0,5.0,7.0,5.0,4.0,9.0,4.0,5.0,5.0,6.0,6.0,6.0,2.0,6.0,6.0,6.0,2.0,3.0,2.0,4.0,3.0,4.0,5.0,5.0,3.0,4.0,5.0,3.0,3.0,3.0,5.0,3.0,4.0,5.0,1.0,6.0,6.0,3.0,2.0,2.0,1.0,3.0,3.0,5.0,2.0,5.0,5.0,6.0,4.0,2.0,2.0,2.0,4.0,5.0,3.0,2.0,3.0,5.0,,5.0,5.0,5.0,6.0,5.0,5.0,5.0,6.0,4.0,6.0,4.0,5.0,6.0,5.0,5.0,3.0,1.0,1.0,3.0,4.0,4.0,5.0,4.0,4.0,1.0,4.0,,4.0,2.0,2.0,3.0,5.0,2.0,"Mon entreprise a pris les bonnes décisions pour assurer la sécurité de ses employés, très tôt dans la crise L'état dans lequel je vis (Washington) a pris de bonnes décisions au contraire du gouvernement fédéral",3.1,1.666667,3.333333,4.666667,4.0,4.0,3.666667,5.2
76788,2188,2020-04-01 09:38:18,EN,35,Female,"College degree, bachelor, master",Up to 12 years of school,Full time employed,United States,no,Florida,Married/cohabiting,0.0,Yes,Life carries on with minor changes,1.0,0.0,,Program C,No,2.0,2.0,2.0,5.0,4.0,2.0,4.0,4.0,2.0,1.0,1.0,1.0,2.0,3.0,8.0,5.0,7.0,8.0,8.0,1.0,8.0,2.0,4.0,2.0,3.0,4.0,10.0,6.0,6.0,6.0,1.0,1.0,1.0,3.0,4.0,6.0,5.0,3.0,4.0,6.0,6.0,6.0,1.0,4.0,6.0,6.0,1.0,6.0,1.0,3.0,99.0,4.0,3.0,4.0,99.0,1.0,99.0,6.0,4.0,2.0,1.0,4.0,1.0,1.0,1.0,1.0,4.0,2.0,1.0,1.0,4.0,99.0,Most concerned about job security,6.0,6.0,6.0,6.0,6.0,6.0,6.0,6.0,6.0,6.0,4.0,3.0,6.0,1.0,3.0,6.0,6.0,6.0,4.0,4.0,6.0,5.0,5.0,6.0,1.0,5.0,I always have emergency supplies. This helps reduce stress.,5.0,5.0,4.0,2.0,1.0,2.0,"I am holding off buying a car, or any big purchase, which I was about to do in mid March. I want to see how long it takes the economy to recover. It has also stalled my significant other starting his new job next week, as all facilities handling the finger print clearance he needs have shut down.",1.8,1.333333,2.666667,3.666667,6.0,5.333333,6.0,6.0
76815,479,2020-04-01 09:07:45,EN,27,Female,"College degree, bachelor, master",College degree,Full time employed,United States,no,Texas,Single,0.0,Yes,Isolated,3.0,1.0,Program A,,No,4.0,5.0,5.0,3.0,3.0,3.0,3.0,4.0,4.0,3.0,5.0,4.0,5.0,4.0,6.0,3.0,1.0,5.0,1.0,4.0,2.0,6.0,6.0,5.0,5.0,5.0,3.0,5.0,5.0,5.0,6.0,2.0,6.0,6.0,6.0,4.0,6.0,6.0,1.0,4.0,6.0,4.0,5.0,3.0,4.0,4.0,3.0,5.0,4.0,5.0,99.0,5.0,5.0,6.0,99.0,4.0,99.0,6.0,4.0,6.0,6.0,6.0,5.0,6.0,5.0,6.0,5.0,6.0,3.0,99.0,99.0,6.0,,6.0,6.0,5.0,6.0,5.0,6.0,6.0,6.0,6.0,5.0,4.0,6.0,6.0,5.0,6.0,5.0,4.0,6.0,6.0,6.0,5.0,5.0,4.0,5.0,2.0,6.0,,2.0,6.0,2.0,3.0,6.0,6.0,,3.5,4.666667,5.0,6.0,4.666667,3.0,4.333333,5.7
76823,654,2020-04-01 09:10:14,EN,26,Female,"College degree, bachelor, master",College degree,Student,United States,no,Michigan,Single,0.0,Yes,Life carries on with minor changes,1.0,0.0,,Program D,No,2.0,4.0,4.0,2.0,4.0,3.0,5.0,3.0,4.0,3.0,1.0,1.0,4.0,7.0,10.0,6.0,7.0,8.0,9.0,8.0,6.0,1.0,5.0,4.0,6.0,6.0,3.0,5.0,6.0,6.0,1.0,2.0,1.0,5.0,4.0,5.0,6.0,4.0,4.0,4.0,2.0,4.0,2.0,5.0,5.0,4.0,3.0,4.0,99.0,6.0,99.0,1.0,2.0,2.0,1.0,1.0,99.0,5.0,4.0,6.0,6.0,6.0,3.0,2.0,2.0,2.0,4.0,5.0,5.0,4.0,5.0,2.0,,6.0,5.0,6.0,6.0,6.0,5.0,6.0,6.0,5.0,6.0,2.0,1.0,5.0,1.0,4.0,5.0,1.0,1.0,5.0,3.0,4.0,3.0,5.0,2.0,1.0,4.0,,5.0,1.0,1.0,2.0,1.0,1.0,,3.0,2.0,3.666667,4.333333,3.333333,5.0,4.0,5.7
76826,2466,2020-04-02 09:40:25,FR,24,Male,PhD/Doctorate,PhD/Doctorate,Student,United States,yes,New York City,Married/cohabiting,0.0,No,Life carries on with minor changes,2.0,0.0,Program B,,No,3.0,3.0,4.0,5.0,4.0,3.0,4.0,3.0,3.0,3.0,3.0,2.0,2.0,5.0,7.0,9.0,7.0,7.0,8.0,6.0,9.0,5.0,5.0,5.0,5.0,5.0,5.0,5.0,5.0,4.0,4.0,4.0,4.0,4.0,4.0,5.0,5.0,4.0,4.0,5.0,5.0,4.0,4.0,4.0,5.0,6.0,4.0,5.0,6.0,4.0,5.0,6.0,4.0,5.0,1.0,4.0,99.0,5.0,4.0,4.0,5.0,5.0,5.0,5.0,5.0,4.0,6.0,5.0,4.0,3.0,5.0,6.0,,,,,,,,,,,,,,,,,,,,,,,,,,,,,,,,,,,,2.7,2.333333,3.333333,4.0,4.666667,4.0,4.666667,
76837,191,2020-04-02 09:01:45,EN,56,Female,"College degree, bachelor, master",Some College or equivalent,Self-employed,United States,no,Virginia,Married/cohabiting,1.0,No,Isolated,2.0,0.0,,,,,,,,,,,,,,,,,,,,,,,,,,,,,,,,,,,,,,,,,,,,,,,,,,,,,,,,,,,,,,,,,,,,,,,,,,,,,,,,,,,,,,,,,,,,,,,,,,,,,,,,,,,,,,,,,,,,,,
76842,1135,2020-04-01 09:17:04,EN,81,Male,"College degree, bachelor, master",College degree,Retired,United States,no,Virginia,Married/cohabiting,0.0,Yes,Life carries on with minor changes,1.0,0.0,Program A,,No,3.0,1.0,1.0,5.0,4.0,1.0,4.0,5.0,3.0,1.0,1.0,1.0,1.0,9.0,9.0,8.0,8.0,9.0,5.0,9.0,4.0,6.0,6.0,6.0,6.0,6.0,0.0,5.0,6.0,5.0,2.0,4.0,4.0,6.0,2.0,6.0,4.0,4.0,4.0,5.0,6.0,5.0,4.0,4.0,4.0,5.0,1.0,6.0,1.0,2.0,99.0,1.0,2.0,3.0,1.0,2.0,99.0,6.0,2.0,4.0,4.0,4.0,1.0,2.0,2.0,2.0,2.0,2.0,4.0,2.0,2.0,2.0,,5.0,5.0,5.0,5.0,5.0,5.0,5.0,5.0,5.0,5.0,4.0,3.0,4.0,2.0,4.0,2.0,2.0,2.0,4.0,4.0,4.0,4.0,4.0,4.0,2.0,4.0,,2.0,5.0,2.0,2.0,2.0,2.0,,1.6,1.0,3.0,3.666667,5.333333,3.666667,5.666667,5.0
76846,1229,2020-04-01 09:18:11,EN,31,Female,"Some College, short continuing education or equivalent",Up to 9 years of school,Full time employed,United States,no,California,Married/cohabiting,2.0,Yes,Life carries on with minor changes,1.0,2.0,,Program D,Not sure,3.0,2.0,3.0,3.0,3.0,3.0,4.0,3.0,2.0,1.0,4.0,1.0,3.0,3.0,7.0,7.0,7.0,8.0,6.0,8.0,6.0,6.0,6.0,6.0,6.0,5.0,5.0,5.0,6.0,6.0,2.0,2.0,3.0,3.0,3.0,5.0,5.0,6.0,3.0,4.0,4.0,4.0,2.0,5.0,5.0,5.0,4.0,6.0,3.0,2.0,5.0,5.0,3.0,2.0,5.0,4.0,3.0,2.0,5.0,5.0,5.0,5.0,2.0,3.0,4.0,4.0,5.0,5.0,4.0,3.0,5.0,2.0,,5.0,4.0,4.0,4.0,4.0,4.0,5.0,4.0,4.0,5.0,4.0,5.0,5.0,5.0,5.0,3.0,2.0,2.0,3.0,6.0,4.0,4.0,5.0,5.0,5.0,4.0,,2.0,4.0,2.0,4.0,5.0,2.0,Feeling of anxiety and depression,2.5,2.666667,2.666667,5.0,4.0,5.0,4.666667,4.3
76864,728,2020-04-01 09:08:39,EN,25,Male,"College degree, bachelor, master",College degree,Full time employed,United States,no,New York,Single,0.0,Yes,Isolated,0.0,0.0,Program B,,Not sure,4.0,3.0,5.0,4.0,2.0,3.0,4.0,3.0,3.0,3.0,5.0,4.0,5.0,3.0,5.0,0.0,0.0,0.0,0.0,3.0,0.0,4.0,5.0,5.0,6.0,6.0,0.0,3.0,5.0,5.0,4.0,3.0,4.0,4.0,6.0,4.0,4.0,3.0,4.0,4.0,6.0,4.0,5.0,3.0,4.0,5.0,4.0,4.0,4.0,6.0,99.0,6.0,4.0,4.0,99.0,99.0,99.0,6.0,4.0,6.0,5.0,6.0,5.0,4.0,4.0,6.0,5.0,3.0,5.0,5.0,6.0,6.0,,5.0,4.0,5.0,4.0,4.0,4.0,4.0,4.0,4.0,4.0,1.0,5.0,5.0,5.0,5.0,3.0,2.0,2.0,5.0,5.0,3.0,1.0,4.0,5.0,2.0,1.0,,4.0,4.0,4.0,4.0,4.0,1.0,,3.2,4.666667,4.333333,3.333333,4.666667,3.0,4.0,4.2
76931,663,2020-04-01 09:03:40,EN,42,Female,PhD/Doctorate,Up to 12 years of school,Full time employed,United States,no,Idaho,Married/cohabiting,2.0,Yes,Isolated,3.0,0.0,Program B,,No,3.0,4.0,4.0,4.0,2.0,3.0,3.0,2.0,4.0,2.0,3.0,4.0,4.0,5.0,7.0,2.0,2.0,3.0,2.0,8.0,0.0,5.0,6.0,5.0,6.0,6.0,0.0,6.0,6.0,6.0,2.0,1.0,4.0,6.0,4.0,3.0,3.0,3.0,3.0,6.0,6.0,6.0,3.0,4.0,5.0,6.0,1.0,6.0,4.0,5.0,5.0,5.0,5.0,5.0,99.0,5.0,99.0,6.0,4.0,5.0,5.0,6.0,5.0,5.0,6.0,5.0,5.0,3.0,1.0,1.0,6.0,4.0,,6.0,6.0,6.0,6.0,6.0,6.0,6.0,6.0,6.0,6.0,1.0,2.0,5.0,1.0,5.0,4.0,1.0,2.0,5.0,4.0,5.0,5.0,2.0,5.0,1.0,2.0,,6.0,6.0,3.0,6.0,6.0,1.0,,3.3,3.666667,4.666667,3.333333,6.0,4.333333,6.0,6.0
77087,1230,2020-04-01 09:01:40,SME,32,Female,"College degree, bachelor, master",Up to 6 years of school,Full time employed,United States,yes,San Bernardino Ca,Divorced/widowed,1.0,No,Isolated,4.0,1.0,,Program D,No,3.0,4.0,3.0,4.0,4.0,2.0,3.0,4.0,3.0,2.0,3.0,2.0,1.0,5.0,7.0,7.0,6.0,5.0,6.0,7.0,8.0,6.0,6.0,6.0,6.0,6.0,8.0,5.0,6.0,6.0,1.0,5.0,2.0,6.0,5.0,4.0,5.0,5.0,4.0,5.0,6.0,5.0,2.0,2.0,6.0,5.0,1.0,5.0,6.0,3.0,2.0,6.0,2.0,3.0,5.0,5.0,2.0,6.0,4.0,5.0,2.0,5.0,1.0,3.0,2.0,2.0,2.0,2.0,5.0,5.0,6.0,5.0,No tener empleo hasta que esto pare,4.0,4.0,4.0,4.0,4.0,4.0,4.0,5.0,4.0,5.0,5.0,5.0,5.0,1.0,2.0,5.0,1.0,1.0,5.0,5.0,5.0,5.0,5.0,5.0,6.0,6.0,,3.0,3.0,3.0,5.0,5.0,4.0,La falta de empleo,2.6,2.0,4.666667,4.333333,5.333333,4.333333,5.333333,4.2
77089,1131,2020-04-01 08:59:37,EN,26,Male,"College degree, bachelor, master",College degree,Self-employed,United States,yes,New York,Single,0.0,Not sure,Isolated,2.0,0.0,,Program C,No,2.0,2.0,5.0,5.0,3.0,1.0,4.0,4.0,2.0,2.0,3.0,2.0,2.0,6.0,8.0,7.0,6.0,8.0,7.0,6.0,4.0,4.0,6.0,4.0,6.0,6.0,2.0,5.0,6.0,5.0,2.0,2.0,5.0,5.0,3.0,5.0,6.0,4.0,4.0,5.0,5.0,5.0,4.0,5.0,5.0,4.0,4.0,5.0,3.0,2.0,99.0,5.0,5.0,5.0,99.0,6.0,99.0,6.0,4.0,5.0,5.0,4.0,5.0,4.0,6.0,3.0,5.0,4.0,6.0,3.0,6.0,6.0,,6.0,5.0,5.0,5.0,5.0,5.0,6.0,6.0,5.0,3.0,5.0,6.0,6.0,5.0,6.0,6.0,2.0,2.0,5.0,5.0,5.0,5.0,6.0,4.0,2.0,5.0,,3.0,6.0,3.0,2.0,2.0,4.0,,2.2,2.333333,3.333333,4.333333,5.0,4.333333,4.0,5.1
77124,852,2020-04-01 08:52:37,EN,32,Female,PhD/Doctorate,Up to 12 years of school,Full time employed,United States,no,Idaho,Married/cohabiting,0.0,No,Isolated,0.0,0.0,Program B,,No,4.0,5.0,4.0,3.0,2.0,4.0,3.0,2.0,4.0,3.0,5.0,2.0,4.0,6.0,10.0,2.0,9.0,5.0,7.0,8.0,3.0,4.0,6.0,4.0,6.0,6.0,3.0,6.0,6.0,5.0,4.0,6.0,4.0,6.0,5.0,2.0,5.0,6.0,4.0,5.0,5.0,5.0,3.0,6.0,5.0,6.0,3.0,6.0,1.0,5.0,99.0,99.0,3.0,5.0,99.0,99.0,99.0,2.0,2.0,5.0,4.0,6.0,5.0,5.0,4.0,6.0,6.0,99.0,1.0,1.0,2.0,2.0,,6.0,6.0,6.0,6.0,6.0,6.0,6.0,6.0,6.0,5.0,4.0,1.0,6.0,1.0,6.0,5.0,1.0,1.0,5.0,2.0,4.0,4.0,6.0,4.0,1.0,4.0,,6.0,5.0,5.0,1.0,5.0,3.0,Conflicting and patchwork recommendations of state and federal government has made this feel much more uncertain.,3.8,3.666667,5.333333,4.666667,5.0,5.0,5.333333,5.9
77209,636,2020-04-01 08:41:14,LT,42,Female,"College degree, bachelor, master",Some College or equivalent,Not employed,United States,yes,Maryland,Married/cohabiting,3.0,Yes,Isolated,1.0,2.0,,Program D,No,2.0,2.0,1.0,5.0,2.0,2.0,5.0,5.0,1.0,1.0,3.0,3.0,3.0,7.0,10.0,4.0,8.0,5.0,5.0,9.0,5.0,4.0,5.0,5.0,5.0,5.0,4.0,5.0,5.0,5.0,5.0,4.0,4.0,3.0,2.0,5.0,5.0,5.0,4.0,5.0,5.0,5.0,2.0,5.0,5.0,5.0,2.0,5.0,5.0,99.0,99.0,5.0,2.0,5.0,5.0,5.0,5.0,5.0,2.0,5.0,5.0,6.0,99.0,3.0,1.0,5.0,5.0,5.0,4.0,2.0,6.0,3.0,,5.0,5.0,5.0,5.0,5.0,5.0,5.0,6.0,5.0,5.0,4.0,5.0,6.0,2.0,5.0,5.0,1.0,1.0,5.0,5.0,5.0,5.0,4.0,4.0,4.0,5.0,,5.0,5.0,5.0,5.0,5.0,5.0,,1.6,3.0,2.333333,4.333333,5.0,5.0,5.0,5.1
77224,2021,2020-04-01 09:03:46,FR,29,Male,PhD/Doctorate,College degree,Not employed,United States,yes,New-York,Married/cohabiting,0.0,Yes,Isolated,1.0,0.0,Program A,,No,4.0,5.0,5.0,4.0,2.0,5.0,4.0,2.0,2.0,3.0,3.0,3.0,4.0,5.0,8.0,2.0,5.0,5.0,4.0,8.0,6.0,5.0,5.0,5.0,5.0,5.0,5.0,5.0,5.0,5.0,4.0,3.0,2.0,5.0,4.0,5.0,4.0,3.0,5.0,4.0,5.0,5.0,5.0,3.0,4.0,4.0,2.0,3.0,2.0,4.0,1.0,5.0,3.0,4.0,1.0,3.0,1.0,2.0,4.0,5.0,5.0,5.0,3.0,4.0,4.0,4.0,3.0,4.0,3.0,3.0,3.0,2.0,,5.0,5.0,5.0,4.0,5.0,3.0,5.0,5.0,4.0,5.0,3.0,3.0,4.0,3.0,3.0,3.0,4.0,3.0,3.0,4.0,3.0,3.0,3.0,4.0,1.0,3.0,,4.0,4.0,4.0,3.0,4.0,3.0,La limitation des interactions sociales en face à face semble diminuer mon bien être fortement.,3.6,3.333333,3.666667,3.0,4.666667,3.0,4.0,4.6
77228,965,2020-04-01 08:45:47,EN,39,Male,"Some College, short continuing education or equivalent",Up to 12 years of school,Full time employed,United States,no,Colorado,Married/cohabiting,1.0,No,Life carries on with minor changes,1.0,1.0,,Program C,No,1.0,1.0,1.0,5.0,4.0,1.0,5.0,5.0,1.0,1.0,3.0,3.0,3.0,6.0,9.0,,7.0,6.0,,7.0,3.0,2.0,4.0,5.0,6.0,6.0,3.0,6.0,5.0,5.0,1.0,3.0,1.0,1.0,1.0,5.0,5.0,5.0,2.0,4.0,5.0,3.0,5.0,5.0,4.0,6.0,4.0,6.0,1.0,1.0,2.0,1.0,1.0,6.0,1.0,2.0,2.0,2.0,2.0,5.0,5.0,3.0,1.0,3.0,3.0,6.0,4.0,4.0,1.0,1.0,4.0,2.0,,6.0,6.0,5.0,6.0,6.0,5.0,6.0,6.0,5.0,6.0,4.0,2.0,3.0,5.0,1.0,4.0,4.0,5.0,1.0,3.0,2.0,2.0,3.0,3.0,1.0,4.0,,3.0,1.0,1.0,1.0,1.0,6.0,,1.1,3.0,1.333333,5.0,4.0,3.666667,5.0,5.7
77231,1065,2020-04-01 08:47:16,SME,37,Male,PhD/Doctorate,Up to 12 years of school,Student,United States,no,Georgia,Married/cohabiting,0.0,Yes,Life carries on with minor changes,1.0,0.0,Program A,,No,3.0,4.0,4.0,4.0,3.0,3.0,5.0,4.0,3.0,1.0,2.0,2.0,4.0,8.0,9.0,5.0,7.0,6.0,5.0,9.0,6.0,4.0,6.0,5.0,5.0,5.0,4.0,5.0,6.0,6.0,1.0,5.0,4.0,5.0,4.0,5.0,4.0,2.0,4.0,5.0,6.0,4.0,4.0,4.0,5.0,5.0,2.0,5.0,5.0,2.0,99.0,2.0,3.0,3.0,99.0,1.0,99.0,6.0,1.0,6.0,6.0,6.0,1.0,2.0,2.0,2.0,4.0,2.0,5.0,3.0,5.0,6.0,,6.0,6.0,5.0,5.0,6.0,5.0,6.0,6.0,5.0,6.0,5.0,5.0,5.0,5.0,5.0,4.0,4.0,5.0,4.0,4.0,5.0,5.0,5.0,4.0,1.0,5.0,,4.0,1.0,5.0,4.0,4.0,3.0,,2.6,2.666667,3.666667,3.0,5.0,4.0,5.0,5.6
77282,2386,2020-04-01 09:04:48,EN,36,Female,"College degree, bachelor, master",,Not employed,United States,no,South Carolina,Married/cohabiting,3.0,No,Isolated,1.0,3.0,,Program D,No,2.0,5.0,4.0,5.0,2.0,2.0,5.0,5.0,2.0,2.0,5.0,2.0,5.0,0.0,1.0,1.0,4.0,4.0,1.0,10.0,0.0,1.0,6.0,6.0,6.0,6.0,0.0,6.0,6.0,6.0,1.0,4.0,5.0,6.0,6.0,6.0,1.0,2.0,6.0,6.0,6.0,6.0,5.0,6.0,6.0,6.0,1.0,6.0,6.0,99.0,3.0,6.0,5.0,2.0,1.0,6.0,1.0,5.0,6.0,6.0,6.0,6.0,99.0,1.0,1.0,1.0,99.0,5.0,6.0,1.0,5.0,6.0,I am afraid to go back to teaching in unsanitary and distressful conditions. I don't know what else I can do to make future income with my MAed if there are few reliable income jobs in digital teaching . I do not qualify for any public assistance but I have $140k & rising in student loans. I have been  dealing with depression and OCD with isolation in nature to cope. I do not have to change anything because I have already been living in survival mode for a very long time as a result of poverty and unemployment despite my education.,1.0,4.0,1.0,2.0,2.0,1.0,2.0,5.0,5.0,1.0,1.0,1.0,6.0,2.0,1.0,1.0,1.0,1.0,3.0,6.0,6.0,6.0,1.0,6.0,6.0,1.0,Trump & team has been a disgrace and thousands will die because of his Hubris & arrogance.  .,1.0,6.0,6.0,1.0,1.0,2.0,"The current education, health care, food stamps, unemployment are failing educated, hard working, caring people. This pandemic affects those who lack access to basic human rights in our economy. Disease knows no class & now humans will see that our income & opportunity inequality ripples down to every human on the globe. I am so sad it takes massive death count for humans to realize how easy it could be to care for eachother, the environment, & all life on our Planet.",2.4,4.0,4.333333,1.333333,6.0,4.666667,6.0,2.4
77331,401,2020-04-02 08:27:42,FR,31,Male,PhD/Doctorate,College degree,Full time employed,United States,yes,New York,Single,0.0,Yes,Life carries on with minor changes,1.0,0.0,,Program C,Yes,1.0,1.0,3.0,4.0,5.0,2.0,5.0,4.0,1.0,1.0,3.0,3.0,4.0,4.0,7.0,4.0,3.0,3.0,2.0,9.0,3.0,4.0,5.0,4.0,2.0,2.0,3.0,,,,,,,,,,,,,,,,,,,,,,,,,,,,,,,,,,,,,,,,,,,,,,,,,,,,,,,,,,,,,,,,,,,,,,,,,,,,,,,,,1.5,3.333333,,,,,,
77437,1037,2020-04-01 08:28:42,EN,42,Female,"College degree, bachelor, master",Some College or equivalent,Part time employed,United States,no,Washington,Single,1.0,Yes,Life carries on with minor changes,0.0,0.0,,Program D,Yes,4.0,2.0,4.0,5.0,3.0,2.0,3.0,4.0,2.0,2.0,5.0,5.0,5.0,2.0,2.0,2.0,3.0,2.0,6.0,6.0,2.0,3.0,4.0,3.0,5.0,5.0,3.0,6.0,6.0,5.0,2.0,1.0,1.0,5.0,2.0,5.0,4.0,3.0,5.0,5.0,5.0,5.0,2.0,5.0,5.0,5.0,2.0,5.0,4.0,2.0,5.0,2.0,5.0,3.0,2.0,99.0,99.0,5.0,5.0,5.0,5.0,5.0,99.0,2.0,2.0,4.0,5.0,5.0,5.0,1.0,3.0,1.0,"I should note that my psychological state is also influenced by other recent stress factors like admittance to grad school and a diagnosis of DCIS within a week of each other. I also have no family beaides my children and no friends, probably due to my growing up as a ward of the courts and the subsequent social issues, so isolation is different for me.",2.0,2.0,2.0,2.0,2.0,5.0,2.0,2.0,2.0,2.0,3.0,2.0,2.0,2.0,2.0,4.0,2.0,2.0,4.0,5.0,2.0,4.0,5.0,5.0,2.0,4.0,,2.0,5.0,2.0,2.0,5.0,5.0,I have continued to follow scientific news sources for developments on this pandemic. I don't trust anyone else but real data and my and other's who are objective in interpretation of the data.,2.5,5.0,3.0,3.0,5.0,5.0,5.0,2.3
77447,662,2020-04-01 08:21:29,SME,47,Male,PhD/Doctorate,College degree,Full time employed,United States,yes,,Married/cohabiting,3.0,No,Isolated,3.0,2.0,,Program D,No,1.0,1.0,4.0,5.0,4.0,1.0,5.0,3.0,1.0,1.0,1.0,1.0,2.0,6.0,9.0,5.0,8.0,5.0,9.0,9.0,6.0,5.0,6.0,6.0,6.0,6.0,4.0,5.0,6.0,5.0,4.0,3.0,4.0,4.0,2.0,5.0,5.0,3.0,4.0,4.0,5.0,4.0,2.0,5.0,5.0,5.0,2.0,4.0,3.0,3.0,2.0,5.0,3.0,5.0,2.0,2.0,2.0,5.0,5.0,5.0,5.0,6.0,2.0,2.0,3.0,4.0,4.0,4.0,5.0,2.0,5.0,5.0,,5.0,5.0,5.0,5.0,5.0,5.0,5.0,5.0,4.0,5.0,2.0,5.0,4.0,5.0,5.0,4.0,2.0,2.0,4.0,4.0,3.0,4.0,5.0,4.0,2.0,4.0,,5.0,5.0,5.0,3.0,5.0,2.0,,1.6,1.333333,2.666667,3.666667,4.333333,5.0,4.666667,4.9
77491,1160,2020-04-01 08:26:22,LT,41,Female,"College degree, bachelor, master",Some College or equivalent,Full time employed,United States,yes,Minnesota,Married/cohabiting,2.0,No,Life carries on with minor changes,1.0,2.0,Program B,,No,3.0,3.0,2.0,3.0,3.0,2.0,3.0,3.0,3.0,1.0,3.0,2.0,3.0,6.0,6.0,8.0,10.0,9.0,3.0,9.0,9.0,6.0,5.0,5.0,6.0,6.0,6.0,6.0,6.0,6.0,1.0,2.0,4.0,4.0,5.0,5.0,5.0,4.0,2.0,5.0,4.0,6.0,3.0,3.0,4.0,5.0,4.0,5.0,2.0,2.0,4.0,2.0,2.0,5.0,5.0,2.0,4.0,6.0,2.0,5.0,5.0,5.0,2.0,3.0,1.0,4.0,1.0,2.0,3.0,4.0,6.0,6.0,,5.0,5.0,3.0,5.0,6.0,6.0,5.0,6.0,6.0,6.0,3.0,5.0,6.0,4.0,5.0,4.0,4.0,2.0,5.0,5.0,5.0,6.0,6.0,4.0,4.0,5.0,,5.0,5.0,4.0,5.0,5.0,4.0,Jauciuosi nesaugi del 10% pazistamu kurie nesilaiko viriausibinem rekomendacijoms.,2.6,2.666667,3.666667,4.666667,5.0,3.666667,4.333333,5.3
77553,8957,2020-04-01 10:31:07,DE,42,Female,"College degree, bachelor, master",College degree,Not employed,United States,yes,,Married/cohabiting,2.0,No,Isolated,1.0,2.0,Program A,,No,2.0,4.0,3.0,3.0,2.0,3.0,3.0,4.0,4.0,1.0,4.0,3.0,4.0,5.0,9.0,0.0,5.0,9.0,7.0,9.0,0.0,5.0,5.0,5.0,5.0,5.0,0.0,6.0,5.0,5.0,6.0,2.0,5.0,2.0,2.0,5.0,6.0,6.0,1.0,5.0,4.0,6.0,1.0,5.0,6.0,4.0,3.0,5.0,2.0,5.0,5.0,3.0,5.0,6.0,1.0,3.0,5.0,5.0,6.0,5.0,6.0,6.0,3.0,2.0,3.0,5.0,5.0,2.0,6.0,3.0,6.0,6.0,,6.0,6.0,5.0,6.0,5.0,6.0,5.0,5.0,4.0,6.0,4.0,5.0,5.0,1.0,5.0,5.0,1.0,1.0,5.0,5.0,5.0,4.0,5.0,4.0,1.0,5.0,,5.0,5.0,5.0,5.0,5.0,1.0,,2.9,3.666667,2.0,6.0,5.0,5.666667,4.333333,5.4
77706,28733,2020-04-02 15:50:02,BG,59,Female,"College degree, bachelor, master",Some College or equivalent,Full time employed,United States,yes,<U+0449><U+0430><U+0442> <U+041A><U+044A><U+043D><U+0435><U+043A><U+0442><U+0438><U+043A><U+044A><U+0442>,Married/cohabiting,0.0,Yes,Life carries on with minor changes,0.0,0.0,Program B,,No,2.0,2.0,1.0,5.0,3.0,2.0,5.0,4.0,3.0,1.0,1.0,1.0,1.0,6.0,8.0,5.0,8.0,8.0,1.0,3.0,4.0,2.0,4.0,4.0,3.0,4.0,1.0,2.0,6.0,6.0,1.0,4.0,4.0,1.0,1.0,6.0,6.0,4.0,2.0,5.0,5.0,4.0,1.0,6.0,6.0,6.0,1.0,4.0,4.0,2.0,,2.0,1.0,2.0,1.0,2.0,,4.0,3.0,3.0,5.0,5.0,1.0,2.0,1.0,1.0,1.0,2.0,3.0,1.0,2.0,3.0,,6.0,6.0,5.0,6.0,6.0,6.0,6.0,6.0,6.0,6.0,3.0,3.0,5.0,3.0,4.0,5.0,,5.0,5.0,6.0,3.0,2.0,5.0,6.0,1.0,4.0,,3.0,3.0,3.0,3.0,3.0,5.0,,1.8,1.0,1.0,5.0,4.666667,6.0,5.333333,5.9
77726,1139,2020-04-02 08:08:57,EN,75,Female,"Some College, short continuing education or equivalent",Up to 12 years of school,Retired,United States,no,Indiana,Divorced/widowed,0.0,Yes,Isolated,0.0,0.0,Program A,,No,3.0,3.0,4.0,5.0,2.0,2.0,4.0,3.0,2.0,5.0,3.0,3.0,4.0,7.0,9.0,3.0,2.0,7.0,2.0,4.0,1.0,6.0,6.0,6.0,6.0,6.0,1.0,6.0,6.0,6.0,2.0,2.0,2.0,5.0,4.0,2.0,5.0,4.0,4.0,5.0,5.0,4.0,3.0,3.0,5.0,4.0,4.0,4.0,99.0,99.0,99.0,99.0,5.0,5.0,2.0,99.0,99.0,6.0,2.0,6.0,6.0,6.0,99.0,2.0,1.0,4.0,4.0,99.0,3.0,2.0,5.0,4.0,,6.0,4.0,5.0,6.0,6.0,6.0,6.0,6.0,4.0,6.0,3.0,,5.0,1.0,2.0,5.0,2.0,2.0,4.0,4.0,4.0,2.0,,5.0,2.0,2.0,,2.0,5.0,6.0,5.0,3.0,5.0,,2.9,3.333333,4.666667,4.0,4.666667,4.0,3.666667,5.5
77868,86720,2020-04-02 07:43:20,EN,40,Female,"College degree, bachelor, master",Up to 12 years of school,Full time employed,United States,no,Oregon,Married/cohabiting,3.0,Yes,Life carries on with minor changes,1.0,2.0,Program A,,No,3.0,4.0,5.0,3.0,3.0,4.0,3.0,2.0,4.0,4.0,2.0,2.0,4.0,7.0,7.0,2.0,0.0,1.0,,5.0,,4.0,6.0,5.0,6.0,6.0,,5.0,5.0,5.0,5.0,2.0,4.0,6.0,4.0,4.0,4.0,3.0,2.0,4.0,5.0,4.0,4.0,6.0,6.0,4.0,5.0,4.0,2.0,6.0,5.0,99.0,3.0,4.0,99.0,3.0,4.0,5.0,4.0,5.0,5.0,6.0,6.0,4.0,3.0,5.0,3.0,5.0,5.0,5.0,5.0,4.0,,6.0,6.0,6.0,6.0,6.0,6.0,4.0,6.0,6.0,6.0,2.0,5.0,4.0,5.0,4.0,5.0,1.0,1.0,6.0,5.0,4.0,5.0,5.0,3.0,2.0,2.0,,2.0,5.0,5.0,5.0,5.0,2.0,,3.7,2.666667,4.333333,4.0,4.333333,5.0,3.333333,5.8
77936,350,2020-04-02 07:39:03,EN,65,Female,"College degree, bachelor, master",College degree,Full time employed,United States,no,Delaware,Married/cohabiting,0.0,Yes,Life carries on as usual,,,,Program C,No,1.0,1.0,1.0,5.0,5.0,1.0,5.0,5.0,1.0,1.0,1.0,1.0,1.0,0.0,1.0,1.0,1.0,1.0,0.0,0.0,0.0,1.0,1.0,1.0,1.0,1.0,5.0,1.0,1.0,1.0,1.0,1.0,2.0,1.0,6.0,6.0,5.0,5.0,2.0,5.0,1.0,5.0,5.0,6.0,6.0,5.0,5.0,6.0,,,,,,,,,,,,,,,,,,,,,,,,,,,,,,,,,,,,,,,,,,,,,,,,,,,,,,,,,,,,1.0,1.0,2.666667,5.0,3.666667,4.666667,4.333333,
78011,6438,2020-04-01 09:12:49,SME,38,Female,PhD/Doctorate,College degree,Full time employed,United States,yes,Louisiana,Married/cohabiting,1.0,Yes,Isolated,2.0,0.0,Program A,,No,3.0,1.0,3.0,4.0,4.0,2.0,4.0,2.0,2.0,2.0,1.0,1.0,3.0,7.0,7.0,1.0,5.0,6.0,4.0,3.0,4.0,2.0,5.0,5.0,4.0,5.0,2.0,4.0,4.0,5.0,4.0,2.0,5.0,2.0,2.0,4.0,4.0,5.0,3.0,6.0,6.0,5.0,1.0,6.0,5.0,4.0,1.0,6.0,4.0,4.0,99.0,3.0,2.0,5.0,1.0,4.0,99.0,5.0,4.0,4.0,4.0,5.0,4.0,3.0,2.0,4.0,4.0,5.0,4.0,5.0,6.0,6.0,Ni modo! Sigamos para adelante y tratemos de verle el lado positivo,6.0,6.0,6.0,6.0,6.0,6.0,6.0,6.0,6.0,6.0,2.0,5.0,6.0,4.0,6.0,3.0,1.0,4.0,4.0,6.0,3.0,1.0,5.0,5.0,3.0,5.0,"Aprender aleman, proyectos en la casa",4.0,6.0,4.0,3.0,4.0,1.0,,2.3,1.666667,2.333333,4.333333,5.666667,5.666667,5.333333,6.0
78087,1596,2020-04-01 07:46:01,EN,22,Female,"College degree, bachelor, master",College degree,Student,United States,no,Georgia,Single,0.0,Yes,Isolated,3.0,0.0,Program A,,Yes,4.0,5.0,5.0,3.0,3.0,4.0,3.0,2.0,4.0,4.0,4.0,4.0,4.0,6.0,8.0,4.0,6.0,5.0,9.0,9.0,3.0,5.0,5.0,5.0,6.0,5.0,1.0,5.0,4.0,5.0,4.0,2.0,5.0,6.0,6.0,5.0,6.0,6.0,2.0,4.0,4.0,3.0,3.0,4.0,5.0,5.0,5.0,4.0,4.0,6.0,99.0,5.0,5.0,5.0,1.0,6.0,99.0,5.0,5.0,6.0,6.0,6.0,5.0,6.0,4.0,6.0,5.0,3.0,3.0,3.0,6.0,3.0,,5.0,3.0,2.0,4.0,4.0,3.0,5.0,5.0,4.0,5.0,2.0,4.0,4.0,1.0,4.0,4.0,1.0,1.0,4.0,4.0,4.0,4.0,5.0,2.0,1.0,3.0,,5.0,5.0,5.0,5.0,4.0,1.0,"The shelter in place in the United States has forced students to move back home. When I left school, I had to leave my partner behind. This has caused a lot of distress for me because my partner is really the one I go to during adverse situations. I do not get to talk to my partner on the phone or face-to-face (using online programs) because my parents do not know about my partner. This has only added to my level of discomfort. I am also currently in a masters program which has moved the work online, however, there are things that you do not get the experience doing online (I had a research conference cancelled, I conduct face-to-face research that can not be put online, internship, etc.). The unknowns of my academic life has caused a lot of stress, worry, and anger because I have worked so hard to get to where I am at.",3.9,4.0,4.666667,5.666667,3.666667,4.333333,3.666667,4.0
78096,960,2020-04-01 07:34:33,EN,39,Female,"College degree, bachelor, master",College degree,Full time employed,United States,no,Colorado,Married/cohabiting,1.0,Yes,Life carries on with minor changes,,,Program B,,No,2.0,3.0,4.0,4.0,3.0,2.0,3.0,4.0,3.0,3.0,2.0,2.0,3.0,4.0,7.0,2.0,6.0,3.0,4.0,7.0,0.0,4.0,6.0,5.0,6.0,6.0,0.0,6.0,5.0,5.0,2.0,1.0,1.0,4.0,6.0,5.0,6.0,5.0,4.0,6.0,5.0,4.0,2.0,5.0,6.0,4.0,4.0,5.0,99.0,5.0,2.0,99.0,4.0,5.0,2.0,4.0,1.0,6.0,2.0,6.0,5.0,2.0,3.0,1.0,1.0,1.0,4.0,2.0,1.0,1.0,6.0,1.0,,6.0,6.0,5.0,5.0,6.0,5.0,6.0,5.0,5.0,5.0,1.0,1.0,5.0,5.0,5.0,1.0,5.0,6.0,5.0,6.0,2.0,5.0,4.0,5.0,2.0,4.0,,1.0,2.0,2.0,1.0,3.0,2.0,,2.7,2.333333,4.0,4.666667,5.0,5.333333,4.0,5.4
78099,1832,2020-04-01 07:48:43,EN,65,Female,"College degree, bachelor, master",Up to 12 years of school,Retired,United States,no,California USA,Married/cohabiting,0.0,Yes,Life carries on with minor changes,1.0,0.0,Program B,,Not sure,2.0,2.0,3.0,4.0,4.0,1.0,4.0,4.0,1.0,1.0,1.0,1.0,3.0,5.0,8.0,6.0,8.0,8.0,8.0,8.0,5.0,3.0,4.0,4.0,5.0,5.0,4.0,5.0,5.0,5.0,2.0,2.0,1.0,2.0,2.0,5.0,4.0,5.0,2.0,5.0,5.0,2.0,2.0,5.0,5.0,4.0,2.0,5.0,2.0,2.0,99.0,99.0,99.0,4.0,2.0,99.0,99.0,5.0,4.0,4.0,4.0,4.0,99.0,99.0,4.0,2.0,99.0,99.0,4.0,2.0,4.0,99.0,,6.0,5.0,5.0,5.0,6.0,5.0,6.0,6.0,5.0,6.0,5.0,5.0,5.0,5.0,5.0,5.0,4.0,5.0,5.0,5.0,5.0,5.0,4.0,5.0,5.0,5.0,,4.0,5.0,2.0,5.0,5.0,5.0,Just how under prepared we were to cope with this Virus.,1.8,1.666667,2.0,4.666667,4.0,5.0,4.666667,5.5
78153,245,2020-04-02 07:16:32,EN,40,Female,"College degree, bachelor, master",Up to 12 years of school,Full time employed,United States,no,Oregon,Married/cohabiting,3.0,Yes,Life carries on with minor changes,1.0,2.0,Program A,,,,,,,,,,,,,,,,,,,,,,,,,,,,,,,,,,,,,,,,,,,,,,,,,,,,,,,,,,,,,,,,,,,,,,,,,,,,,,,,,,,,,,,,,,,,,,,,,,,,,,,,,,,,,,,,,,,,,
78218,1203,2020-04-01 07:24:28,SME,68,Female,"College degree, bachelor, master",College degree,Retired,United States,yes,Kentucky,Divorced/widowed,0.0,Yes,Isolated,0.0,0.0,Program B,,No,3.0,3.0,5.0,4.0,4.0,3.0,3.0,3.0,3.0,3.0,4.0,3.0,5.0,5.0,8.0,1.0,5.0,5.0,5.0,8.0,4.0,5.0,5.0,5.0,6.0,6.0,0.0,6.0,6.0,6.0,1.0,3.0,4.0,5.0,5.0,5.0,3.0,2.0,6.0,3.0,6.0,5.0,4.0,5.0,6.0,5.0,4.0,4.0,4.0,99.0,99.0,4.0,2.0,5.0,2.0,99.0,99.0,6.0,5.0,6.0,6.0,6.0,99.0,5.0,1.0,5.0,1.0,2.0,1.0,1.0,6.0,6.0,,5.0,2.0,4.0,5.0,5.0,5.0,4.0,5.0,5.0,5.0,5.0,5.0,6.0,1.0,5.0,6.0,1.0,1.0,5.0,5.0,5.0,6.0,5.0,6.0,6.0,5.0,,2.0,2.0,2.0,2.0,2.0,2.0,,3.0,4.0,4.0,2.0,4.666667,4.666667,4.0,4.5
78232,165,2020-04-02 07:05:57,EN,38,Female,"Some College, short continuing education or equivalent",Some College or equivalent,Full time employed,United States,no,Nebraska,Married/cohabiting,0.0,No,Isolated,1.0,0.0,Program A,,,,,,,,,,,,,,,,,,,,,,,,,,,,,,,,,,,,,,,,,,,,,,,,,,,,,,,,,,,,,,,,,,,,,,,,,,,,,,,,,,,,,,,,,,,,,,,,,,,,,,,,,,,,,,,,,,,,,
78334,2316,2020-04-02 07:30:55,EN,41,Female,"Some College, short continuing education or equivalent",Up to 12 years of school,Full time employed,United States,no,Maryland,Divorced/widowed,0.0,Yes,Isolated,3.0,0.0,Program A,,No,2.0,3.0,4.0,4.0,3.0,3.0,4.0,3.0,3.0,2.0,1.0,3.0,4.0,4.0,9.0,2.0,5.0,7.0,0.0,8.0,5.0,2.0,4.0,4.0,6.0,6.0,3.0,5.0,5.0,6.0,2.0,3.0,5.0,4.0,3.0,6.0,4.0,1.0,6.0,6.0,6.0,5.0,1.0,5.0,6.0,5.0,2.0,5.0,99.0,5.0,5.0,6.0,6.0,6.0,99.0,5.0,99.0,6.0,99.0,6.0,6.0,6.0,5.0,4.0,4.0,6.0,5.0,3.0,99.0,99.0,5.0,99.0,,6.0,6.0,6.0,6.0,6.0,5.0,6.0,6.0,5.0,5.0,1.0,5.0,5.0,1.0,5.0,6.0,1.0,1.0,4.0,5.0,5.0,3.0,5.0,4.0,3.0,4.0,,5.0,5.0,6.0,3.0,6.0,4.0,"Lack of universal healthcare in my country. The working poor are losing their jobs, and their health insurance. They are getting fired if they complain about not having protective equipment, and barely make a living wage as it is. Basketball players with no symptoms get tested, while people with symptoms are given a runaround. The health care workers put themselves, and their loved ones on the front line without proper protection. The amount of people that are currently unemployed, instantly, that in turn lose their health insurance. This doesnt effect me directly, yet, but my son is training to be an EMT driver, and may be on the front lines soon. He plans to camp outdoors, as to not put me in risk. We are all effected by what happens in society as a whole. Locally and globally.",2.7,2.666667,2.666667,2.0,5.666667,5.666667,5.0,5.7
78336,1095,2020-04-01 07:10:31,EN,29,Female,"College degree, bachelor, master",College degree,Full time employed,United States,no,New York,Married/cohabiting,1.0,Not sure,Life carries on with minor changes,1.0,1.0,,Program D,Yes,3.0,3.0,5.0,3.0,3.0,2.0,5.0,2.0,4.0,2.0,2.0,4.0,5.0,5.0,8.0,1.0,1.0,6.0,5.0,7.0,1.0,6.0,6.0,6.0,6.0,6.0,0.0,6.0,6.0,6.0,2.0,2.0,2.0,6.0,5.0,5.0,5.0,4.0,4.0,3.0,6.0,2.0,2.0,5.0,6.0,5.0,4.0,6.0,5.0,6.0,99.0,5.0,5.0,2.0,99.0,99.0,99.0,6.0,4.0,6.0,6.0,5.0,5.0,2.0,5.0,5.0,2.0,5.0,2.0,1.0,6.0,1.0,The safety of my,6.0,6.0,6.0,6.0,6.0,6.0,6.0,6.0,6.0,6.0,2.0,5.0,5.0,2.0,5.0,4.0,2.0,2.0,5.0,5.0,2.0,5.0,4.0,5.0,1.0,4.0,,2.0,5.0,2.0,3.0,5.0,2.0,,3.0,3.666667,4.333333,4.0,3.666667,5.333333,4.666667,6.0
78484,891,2020-04-01 06:53:37,BG,37,Female,"College degree, bachelor, master",Up to 12 years of school,Student,United States,yes,Chicago,Married/cohabiting,1.0,Yes,Isolated,1.0,1.0,Program A,,No,1.0,3.0,1.0,4.0,4.0,4.0,4.0,4.0,1.0,2.0,2.0,1.0,3.0,6.0,9.0,9.0,9.0,8.0,8.0,8.0,7.0,2.0,3.0,2.0,5.0,5.0,5.0,5.0,5.0,5.0,2.0,4.0,5.0,2.0,2.0,5.0,4.0,4.0,3.0,5.0,5.0,4.0,2.0,4.0,5.0,5.0,1.0,4.0,4.0,4.0,3.0,3.0,2.0,3.0,1.0,4.0,4.0,5.0,2.0,4.0,4.0,5.0,3.0,3.0,2.0,2.0,3.0,2.0,2.0,1.0,3.0,5.0,,4.0,4.0,4.0,4.0,4.0,5.0,5.0,4.0,4.0,5.0,4.0,5.0,5.0,3.0,5.0,5.0,5.0,5.0,5.0,5.0,4.0,4.0,5.0,5.0,2.0,5.0,,5.0,4.0,5.0,5.0,5.0,5.0,,2.0,2.0,2.0,4.0,4.666667,4.666667,5.0,4.3
78530,125,2020-04-02 06:37:54,BG,54,Female,"College degree, bachelor, master",College degree,Student,United States,yes,<U+041D><U+044E> <U+0419><U+043E><U+0440><U+043A>,Married/cohabiting,2.0,No,,,,,,,,,,,,,,,,,,,,,,,,,,,,,,,,,,,,,,,,,,,,,,,,,,,,,,,,,,,,,,,,,,,,,,,,,,,,,,,,,,,,,,,,,,,,,,,,,,,,,,,,,,,,,,,,,,,,,,,,,
78630,1088,2020-04-01 06:45:20,EN,55,Female,"College degree, bachelor, master",College degree,Full time employed,United States,no,VA,Divorced/widowed,3.0,Yes,Life carries on with minor changes,2.0,0.0,,Program D,No,3.0,4.0,4.0,4.0,2.0,3.0,4.0,4.0,2.0,3.0,3.0,4.0,4.0,7.0,6.0,1.0,8.0,8.0,5.0,9.0,2.0,5.0,6.0,5.0,5.0,6.0,3.0,5.0,5.0,5.0,2.0,2.0,2.0,3.0,2.0,5.0,5.0,4.0,2.0,5.0,5.0,4.0,3.0,5.0,5.0,4.0,2.0,5.0,4.0,2.0,99.0,3.0,6.0,6.0,2.0,5.0,99.0,4.0,5.0,5.0,6.0,5.0,2.0,3.0,2.0,3.0,5.0,5.0,4.0,2.0,6.0,5.0,,5.0,6.0,5.0,5.0,5.0,5.0,5.0,5.0,5.0,5.0,3.0,5.0,5.0,4.0,4.0,3.0,1.0,1.0,5.0,4.0,4.0,4.0,4.0,4.0,4.0,3.0,,2.0,4.0,5.0,4.0,4.0,3.0,,2.9,3.666667,2.333333,4.666667,4.666667,4.666667,4.666667,5.1
78666,883,2020-04-01 06:38:19,EN,58,Female,"College degree, bachelor, master",Some College or equivalent,Retired,United States,no,California,Married/cohabiting,0.0,Yes,Isolated,1.0,0.0,Program A,,Yes,1.0,2.0,2.0,5.0,5.0,1.0,5.0,4.0,1.0,1.0,1.0,1.0,4.0,5.0,9.0,2.0,6.0,5.0,3.0,6.0,0.0,5.0,6.0,6.0,6.0,6.0,0.0,6.0,6.0,6.0,1.0,2.0,6.0,5.0,2.0,6.0,4.0,4.0,5.0,6.0,6.0,5.0,1.0,5.0,5.0,6.0,2.0,6.0,1.0,99.0,99.0,99.0,1.0,2.0,99.0,1.0,99.0,6.0,2.0,4.0,2.0,4.0,99.0,1.0,1.0,1.0,99.0,4.0,1.0,2.0,1.0,1.0,Broadband connectivity,6.0,5.0,6.0,6.0,6.0,6.0,6.0,6.0,6.0,6.0,2.0,2.0,5.0,1.0,6.0,5.0,1.0,1.0,4.0,6.0,4.0,4.0,5.0,5.0,1.0,5.0,,1.0,6.0,5.0,4.0,5.0,4.0,"Thankful to live in a rural and isolated community, yet worried about those who wont survive the economic hardships here",1.3,2.0,2.666667,3.333333,5.666667,5.333333,5.666667,5.9
78693,2512,2020-04-01 07:03:42,SME,57,Female,"College degree, bachelor, master",Up to 9 years of school,Self-employed,United States,yes,,Married/cohabiting,1.0,Yes,Isolated,,0.0,,Program C,No,3.0,2.0,3.0,5.0,5.0,3.0,5.0,5.0,3.0,2.0,2.0,2.0,2.0,10.0,10.0,5.0,9.0,7.0,8.0,8.0,9.0,6.0,6.0,6.0,6.0,6.0,5.0,6.0,6.0,6.0,3.0,6.0,1.0,6.0,4.0,6.0,6.0,6.0,6.0,6.0,6.0,6.0,1.0,6.0,6.0,6.0,1.0,6.0,5.0,1.0,99.0,5.0,4.0,5.0,99.0,2.0,1.0,5.0,1.0,5.0,6.0,,1.0,99.0,2.0,99.0,6.0,2.0,1.0,1.0,5.0,1.0,,6.0,6.0,6.0,6.0,6.0,6.0,6.0,6.0,6.0,6.0,6.0,1.0,6.0,6.0,6.0,6.0,,,6.0,6.0,6.0,6.0,6.0,6.0,,6.0,,6.0,6.0,6.0,6.0,6.0,6.0,,2.0,2.0,3.666667,4.333333,6.0,6.0,6.0,6.0
78900,347,2020-04-02 06:15:53,EN,56,Female,"College degree, bachelor, master",Up to 12 years of school,Self-employed,United States,no,MI,Married/cohabiting,2.0,Yes,Isolated,4.0,0.0,,,,1.0,1.0,1.0,4.0,3.0,1.0,5.0,4.0,1.0,1.0,1.0,1.0,2.0,5.0,8.0,5.0,10.0,7.0,7.0,6.0,5.0,5.0,5.0,5.0,6.0,6.0,4.0,4.0,5.0,5.0,1.0,4.0,1.0,,,,,,,,,,,,,,,,,,,,,,,,,,,,,,,,,,,,,,,,,,,,,,,,,,,,,,,,,,,,,,,,,,,,,,,,,,,1.4,1.333333,,,,,,
78967,1032,2020-04-02 06:24:13,ZH-S,61,Female,PhD/Doctorate,Up to 12 years of school,Full time employed,United States,no,New Jersey,Married/cohabiting,0.0,Yes,Life carries on with minor changes,1.0,0.0,Program A,,No,3.0,2.0,2.0,4.0,2.0,2.0,4.0,1.0,1.0,1.0,3.0,1.0,2.0,8.0,9.0,,,,,7.0,,6.0,6.0,6.0,6.0,6.0,,6.0,6.0,6.0,1.0,5.0,6.0,4.0,4.0,4.0,4.0,5.0,3.0,3.0,5.0,3.0,5.0,5.0,4.0,5.0,2.0,5.0,5.0,6.0,99.0,6.0,2.0,5.0,2.0,6.0,99.0,6.0,4.0,6.0,6.0,6.0,5.0,6.0,2.0,4.0,5.0,6.0,6.0,5.0,6.0,6.0,,6.0,5.0,6.0,6.0,6.0,6.0,6.0,6.0,6.0,6.0,6.0,6.0,6.0,2.0,6.0,6.0,6.0,4.0,6.0,4.0,5.0,6.0,6.0,6.0,6.0,6.0,,1.0,1.0,3.0,4.0,5.0,6.0,,2.4,2.0,3.666667,4.333333,3.666667,3.666667,5.0,5.9
78988,1133,2020-04-01 06:24:43,FR,18,Female,Up to 12 years of school,College degree,Student,United States,yes,Illinois,Single,0.0,Yes,Life carries on with minor changes,2.0,2.0,,Program C,No,3.0,3.0,3.0,5.0,5.0,3.0,3.0,4.0,1.0,1.0,1.0,2.0,2.0,7.0,7.0,6.0,5.0,6.0,7.0,6.0,5.0,2.0,5.0,5.0,6.0,6.0,4.0,5.0,6.0,6.0,1.0,6.0,1.0,6.0,6.0,5.0,5.0,3.0,5.0,5.0,6.0,6.0,3.0,4.0,6.0,5.0,3.0,4.0,1.0,5.0,1.0,2.0,2.0,4.0,1.0,3.0,4.0,2.0,2.0,6.0,5.0,5.0,5.0,4.0,1.0,2.0,2.0,3.0,5.0,3.0,5.0,1.0,A lheure actuelle nous ne savons pas de quelle manière je vais passer mon bac à létranger sachant que nous le passons relativement tot et que les mesures de confinement seront sûrement encore valables. Aussi il fait que je déménage seule a létranger lannée prochaine et cette procédure sannonce plus compliquée.,6.0,6.0,5.0,6.0,6.0,6.0,6.0,6.0,5.0,6.0,4.0,6.0,3.0,5.0,6.0,5.0,5.0,3.0,5.0,5.0,3.0,5.0,5.0,6.0,1.0,5.0,,4.0,4.0,4.0,5.0,2.0,2.0,"Les organes de santé aux États-Unis coûtent très chers, et même si le test est gratuit, les soins le suivant seraient une énorme dépense. Nous pensons que ma mère est/était malade et redoutons les complications sachant que nous ne pouvons pas y aller pour vérifier car cela coûterait déjà beaucoup.",2.1,1.666667,4.666667,3.333333,5.666667,4.666667,4.333333,5.8
79055,236,2020-04-02 06:06:05,FR,18,Female,Up to 12 years of school,College degree,Student,United States,yes,Illinois,Single,0.0,Yes,Life carries on with minor changes,2.0,2.0,,,,,,,,,,,,,,,,,,,,,,,,,,,,,,,,,,,,,,,,,,,,,,,,,,,,,,,,,,,,,,,,,,,,,,,,,,,,,,,,,,,,,,,,,,,,,,,,,,,,,,,,,,,,,,,,,,,,,,
79145,926,2020-04-01 06:12:37,EN,67,Male,"College degree, bachelor, master",Up to 12 years of school,Full time employed,United States,no,Idaho,Married/cohabiting,0.0,Yes,Life carries on with minor changes,3.0,0.0,Program B,,No,1.0,2.0,2.0,4.0,3.0,2.0,3.0,3.0,2.0,1.0,1.0,2.0,3.0,6.0,8.0,4.0,6.0,4.0,6.0,6.0,3.0,5.0,6.0,5.0,4.0,4.0,4.0,4.0,5.0,4.0,2.0,3.0,1.0,3.0,2.0,5.0,5.0,3.0,5.0,4.0,5.0,5.0,2.0,5.0,5.0,4.0,4.0,5.0,5.0,5.0,1.0,2.0,6.0,3.0,1.0,1.0,1.0,5.0,1.0,4.0,5.0,5.0,3.0,3.0,1.0,2.0,4.0,4.0,3.0,2.0,3.0,1.0,,4.0,5.0,5.0,4.0,3.0,4.0,3.0,5.0,4.0,4.0,2.0,4.0,2.0,3.0,2.0,4.0,4.0,4.0,4.0,2.0,2.0,2.0,3.0,3.0,1.0,2.0,,1.0,1.0,1.0,1.0,1.0,1.0,,2.1,2.0,2.333333,3.333333,4.666667,5.0,4.0,4.1
79176,643,2020-04-02 06:07:01,EN,48,Male,"College degree, bachelor, master",College degree,Self-employed,United States,no,CA,Married/cohabiting,0.0,Yes,Isolated,1.0,0.0,,,,3.0,3.0,4.0,3.0,2.0,3.0,3.0,2.0,3.0,4.0,2.0,3.0,4.0,7.0,8.0,5.0,5.0,7.0,7.0,7.0,5.0,6.0,6.0,5.0,5.0,4.0,3.0,5.0,6.0,6.0,1.0,3.0,6.0,4.0,4.0,5.0,6.0,4.0,5.0,5.0,5.0,5.0,4.0,4.0,6.0,5.0,5.0,4.0,4.0,5.0,99.0,4.0,3.0,6.0,2.0,2.0,99.0,5.0,5.0,6.0,5.0,6.0,2.0,4.0,4.0,4.0,5.0,5.0,2.0,2.0,4.0,5.0,,5.0,5.0,4.0,5.0,5.0,5.0,5.0,5.0,5.0,5.0,,3.0,5.0,3.0,5.0,5.0,,,,2.0,4.0,,5.0,4.0,3.0,4.0,,5.0,6.0,6.0,4.0,6.0,4.0,,3.4,3.0,3.333333,4.0,5.0,4.333333,3.666667,4.9
79234,1232,2020-04-01 06:14:17,EN,23,Female,"Some College, short continuing education or equivalent",Up to 12 years of school,Full time employed,United States,no,Ut,Single,0.0,Yes,Isolated,3.0,0.0,Program A,,No,3.0,2.0,2.0,5.0,1.0,3.0,4.0,5.0,2.0,1.0,4.0,2.0,4.0,5.0,8.0,,9.0,6.0,2.0,5.0,7.0,3.0,6.0,6.0,6.0,6.0,5.0,6.0,6.0,5.0,6.0,4.0,2.0,5.0,5.0,6.0,6.0,5.0,4.0,6.0,6.0,6.0,2.0,6.0,6.0,6.0,4.0,6.0,6.0,6.0,99.0,6.0,3.0,5.0,6.0,4.0,99.0,6.0,3.0,6.0,6.0,6.0,6.0,6.0,6.0,6.0,6.0,4.0,6.0,2.0,6.0,1.0,,5.0,5.0,5.0,5.0,5.0,5.0,5.0,5.0,5.0,5.0,5.0,3.0,6.0,6.0,5.0,5.0,1.0,1.0,5.0,5.0,5.0,5.0,5.0,5.0,6.0,5.0,,6.0,6.0,5.0,6.0,6.0,6.0,,2.2,3.333333,3.666667,4.666667,6.0,5.666667,5.0,5.0
79285,1140,2020-04-01 06:09:57,EN,35,Female,PhD/Doctorate,College degree,Full time employed,United States,no,MA,Married/cohabiting,0.0,Yes,Isolated,1.0,0.0,Program A,,No,2.0,3.0,3.0,4.0,4.0,2.0,4.0,4.0,2.0,2.0,1.0,1.0,1.0,2.0,5.0,2.0,2.0,2.0,2.0,3.0,2.0,3.0,6.0,5.0,4.0,4.0,3.0,5.0,6.0,6.0,1.0,2.0,5.0,4.0,4.0,4.0,3.0,2.0,4.0,4.0,6.0,6.0,3.0,4.0,3.0,5.0,2.0,5.0,2.0,1.0,99.0,4.0,4.0,2.0,1.0,5.0,99.0,3.0,3.0,5.0,5.0,6.0,2.0,2.0,2.0,2.0,2.0,2.0,2.0,2.0,2.0,2.0,,4.0,5.0,5.0,5.0,5.0,5.0,5.0,6.0,5.0,5.0,3.0,4.0,5.0,2.0,5.0,5.0,6.0,6.0,5.0,4.0,4.0,2.0,4.0,5.0,1.0,4.0,,2.0,2.0,2.0,4.0,2.0,3.0,I am an introverted hermit who can work from home with little to no loss of productivity.,2.2,1.0,3.666667,2.666667,5.333333,3.666667,5.0,5.0
79567,166,2020-04-02 05:40:13,LT,60,Female,"College degree, bachelor, master",College degree,Retired,United States,yes,Niujorkas,Married/cohabiting,0.0,Yes,Life carries on with minor changes,1.0,0.0,,,,,,,,,,,,,,,,,,,,,,,,,,,,,,,,,,,,,,,,,,,,,,,,,,,,,,,,,,,,,,,,,,,,,,,,,,,,,,,,,,,,,,,,,,,,,,,,,,,,,,,,,,,,,,,,,,,,,,
79684,308,2020-04-02 05:36:18,FR,33,Male,PhD/Doctorate,College degree,Full time employed,United States,yes,california,Single,0.0,No,Life carries on with minor changes,2.0,0.0,Program A,,No,3.0,3.0,2.0,3.0,4.0,2.0,4.0,4.0,3.0,2.0,3.0,1.0,3.0,,,,,,,,,,,,,,,,,,,,,,,,,,,,,,,,,,,,,,,,,,,,,,,,,,,,,,,,,,,,,,,,,,,,,,,,,,,,,,,,,,,,,,,,,,,,,,,2.4,2.333333,,,,,,
79944,1110,2020-04-01 05:36:02,EN,32,Male,"College degree, bachelor, master",Some College or equivalent,Full time employed,United States,yes,California,Married/cohabiting,0.0,No,Isolated,3.0,0.0,Program A,,No,2.0,1.0,1.0,4.0,4.0,1.0,5.0,5.0,3.0,1.0,2.0,1.0,2.0,3.0,5.0,1.0,7.0,7.0,7.0,9.0,1.0,4.0,6.0,6.0,5.0,5.0,0.0,6.0,6.0,6.0,1.0,4.0,3.0,4.0,2.0,5.0,2.0,2.0,5.0,6.0,5.0,6.0,2.0,5.0,5.0,5.0,4.0,5.0,2.0,1.0,99.0,3.0,2.0,2.0,1.0,3.0,99.0,5.0,6.0,6.0,6.0,6.0,1.0,1.0,2.0,2.0,5.0,2.0,2.0,1.0,2.0,2.0,,5.0,4.0,5.0,5.0,5.0,5.0,4.0,5.0,5.0,5.0,1.0,5.0,6.0,4.0,4.0,5.0,4.0,4.0,5.0,4.0,4.0,4.0,4.0,5.0,1.0,2.0,,4.0,5.0,5.0,6.0,6.0,5.0,,1.5,1.666667,2.666667,2.0,5.666667,5.0,4.333333,4.8
80174,1438,2020-04-01 05:32:11,EN,68,Male,"Some College, short continuing education or equivalent",Up to 12 years of school,Retired,United States,no,California,Married/cohabiting,0.0,No,Life carries on with minor changes,0.0,0.0,Program B,,No,1.0,1.0,1.0,5.0,5.0,1.0,5.0,5.0,1.0,1.0,1.0,1.0,1.0,5.0,10.0,5.0,2.0,10.0,5.0,10.0,,1.0,1.0,1.0,5.0,6.0,0.0,6.0,6.0,6.0,6.0,2.0,2.0,3.0,1.0,6.0,5.0,5.0,2.0,6.0,6.0,6.0,1.0,6.0,1.0,6.0,2.0,6.0,1.0,1.0,99.0,1.0,1.0,2.0,99.0,2.0,99.0,4.0,1.0,1.0,1.0,1.0,1.0,1.0,1.0,1.0,1.0,99.0,1.0,1.0,1.0,3.0,,6.0,6.0,6.0,6.0,6.0,6.0,6.0,6.0,6.0,6.0,4.0,1.0,6.0,1.0,6.0,6.0,1.0,1.0,2.0,4.0,,5.0,4.0,1.0,1.0,6.0,,1.0,2.0,2.0,4.0,1.0,3.0,,1.0,1.0,1.666667,5.0,6.0,4.333333,5.666667,6.0
80236,469,2020-04-02 05:13:28,EN,50,Female,"College degree, bachelor, master",PhD/Doctorate,Not employed,United States,no,Massachusetts,Married/cohabiting,2.0,No,Isolated,1.0,2.0,,Program D,No,2.0,5.0,5.0,4.0,3.0,4.0,3.0,2.0,3.0,3.0,4.0,2.0,5.0,5.0,8.0,4.0,7.0,7.0,1.0,6.0,1.0,5.0,5.0,5.0,6.0,6.0,2.0,5.0,3.0,3.0,3.0,2.0,4.0,3.0,4.0,4.0,6.0,6.0,2.0,5.0,5.0,6.0,4.0,4.0,4.0,2.0,5.0,4.0,,,,,,,,,,,,,,,,,,,,,,,,,,,,,,,,,,,,,,,,,,,,,,,,,,,,,,,,,,,,3.4,3.666667,3.333333,5.666667,5.333333,3.666667,2.666667,
80252,872,2020-04-01 05:18:55,EN,56,Female,PhD/Doctorate,College degree,Full time employed,United States,no,Massachusetts,Divorced/widowed,1.0,Yes,Isolated,0.0,0.0,,Program D,No,2.0,2.0,3.0,4.0,3.0,1.0,4.0,4.0,2.0,1.0,3.0,3.0,3.0,6.0,7.0,2.0,5.0,7.0,7.0,8.0,2.0,5.0,6.0,5.0,5.0,5.0,2.0,5.0,5.0,5.0,1.0,2.0,2.0,3.0,4.0,5.0,5.0,4.0,3.0,4.0,5.0,5.0,2.0,4.0,6.0,3.0,4.0,4.0,5.0,5.0,99.0,5.0,5.0,5.0,1.0,3.0,1.0,99.0,3.0,6.0,5.0,99.0,1.0,3.0,2.0,3.0,6.0,3.0,2.0,2.0,5.0,2.0,,2.0,3.0,4.0,2.0,2.0,4.0,2.0,4.0,3.0,3.0,2.0,2.0,4.0,2.0,4.0,4.0,1.0,1.0,3.0,3.0,3.0,3.0,4.0,2.0,1.0,2.0,,2.0,3.0,2.0,2.0,2.0,3.0,,2.0,3.0,3.0,4.333333,4.666667,5.0,3.333333,2.9
80540,1437,2020-04-01 05:14:45,EN,53,Female,"Some College, short continuing education or equivalent",Up to 12 years of school,Part time employed,United States,no,PA,Married/cohabiting,0.0,Yes,Life carries on with minor changes,,,,Program C,No,2.0,2.0,2.0,4.0,3.0,2.0,2.0,4.0,2.0,1.0,2.0,3.0,3.0,7.0,9.0,5.0,8.0,9.0,6.0,8.0,5.0,5.0,6.0,6.0,6.0,6.0,3.0,6.0,5.0,6.0,6.0,4.0,4.0,4.0,2.0,5.0,5.0,4.0,3.0,5.0,5.0,3.0,2.0,5.0,5.0,4.0,2.0,5.0,99.0,5.0,99.0,99.0,5.0,4.0,99.0,5.0,99.0,5.0,5.0,5.0,6.0,5.0,4.0,4.0,5.0,4.0,5.0,5.0,4.0,2.0,5.0,99.0,Essential employees who still have to work even though they could be exposing themselves  and family  members.,5.0,5.0,5.0,5.0,5.0,5.0,5.0,5.0,5.0,5.0,3.0,5.0,5.0,5.0,5.0,4.0,4.0,3.0,5.0,5.0,5.0,5.0,5.0,5.0,2.0,4.0,We live in a rural community so being outside helps and you don't have social  contact to worry about.,5.0,5.0,5.0,5.0,5.0,4.0,"I feel like the local governments (state) even if it was late to do so, is stepping up to handle the spread of the virus better than the Federal  government did.",2.2,2.666667,2.666667,4.333333,4.333333,5.0,4.666667,5.0
81189,449,2020-04-02 04:31:15,EN,50,Female,"College degree, bachelor, master",Up to 9 years of school,Retired,United States,no,Puerto Rico,Divorced/widowed,0.0,Yes,Isolated,0.0,0.0,Program A,,No,2.0,3.0,3.0,4.0,3.0,2.0,4.0,3.0,2.0,2.0,2.0,3.0,3.0,,,,,,,,,,,,,,,,,,,,,,,,,,,,,,,,,,,,,,,,,,,,,,,,,,,,,,,,,,,,,,,,,,,,,,,,,,,,,,,,,,,,,,,,,,,,,,,2.4,2.666667,,,,,,
82148,563,2020-04-01 03:34:41,EN,44,Other/would rather not say,"Some College, short continuing education or equivalent",College degree,Full time employed,United States,no,Washington,Married/cohabiting,0.0,No,Life carries on with minor changes,,,,,,3.0,3.0,3.0,4.0,3.0,2.0,3.0,4.0,3.0,2.0,2.0,3.0,3.0,2.0,5.0,1.0,2.0,4.0,4.0,5.0,,5.0,5.0,5.0,4.0,3.0,3.0,5.0,4.0,4.0,1.0,2.0,2.0,4.0,3.0,4.0,4.0,4.0,4.0,4.0,2.0,2.0,4.0,3.0,3.0,5.0,3.0,5.0,2.0,2.0,1.0,,2.0,2.0,,3.0,2.0,2.0,3.0,4.0,5.0,2.0,2.0,2.0,3.0,2.0,2.0,3.0,,2.0,3.0,4.0,The spread of bad or deliberate disinformation,5.0,5.0,5.0,5.0,5.0,5.0,5.0,5.0,5.0,5.0,2.0,2.0,5.0,2.0,5.0,5.0,2.0,2.0,5.0,3.0,3.0,2.0,5.0,3.0,1.0,3.0,,2.0,5.0,5.0,2.0,5.0,5.0,,2.6,2.666667,3.333333,3.666667,2.666667,3.0,4.666667,5.0
82170,706,2020-04-01 03:35:11,EN,39,Male,"College degree, bachelor, master",Some College or equivalent,Self-employed,United States,no,Massachusetts,Married/cohabiting,3.0,No,Isolated,3.0,4.0,Program A,,Not sure,3.0,4.0,5.0,3.0,3.0,3.0,3.0,3.0,5.0,3.0,5.0,4.0,4.0,4.0,8.0,6.0,8.0,7.0,6.0,9.0,2.0,4.0,5.0,6.0,6.0,6.0,2.0,4.0,5.0,5.0,4.0,5.0,5.0,5.0,5.0,4.0,5.0,5.0,3.0,6.0,5.0,5.0,5.0,3.0,3.0,4.0,2.0,6.0,1.0,4.0,5.0,2.0,2.0,6.0,1.0,6.0,5.0,5.0,5.0,6.0,6.0,6.0,1.0,3.0,4.0,5.0,4.0,5.0,2.0,3.0,5.0,5.0,Lack of exercise,4.0,5.0,5.0,4.0,5.0,4.0,5.0,6.0,6.0,5.0,3.0,1.0,6.0,1.0,6.0,4.0,6.0,4.0,5.0,4.0,2.0,3.0,4.0,2.0,1.0,2.0,,2.0,4.0,3.0,2.0,2.0,1.0,This is stressing several of my relationships. I am now living with two partners and can't see another two partners at all.,3.5,4.333333,4.333333,4.666667,5.333333,2.666667,5.0,4.9
82442,1056,2020-04-01 03:20:54,EN,49,Male,"College degree, bachelor, master",College degree,Full time employed,United States,no,Georgia,Married/cohabiting,2.0,Yes,Isolated,1.0,2.0,,Program C,Not sure,2.0,2.0,4.0,4.0,3.0,5.0,3.0,4.0,2.0,4.0,1.0,2.0,2.0,7.0,9.0,7.0,7.0,7.0,7.0,7.0,4.0,4.0,5.0,5.0,5.0,5.0,0.0,6.0,6.0,6.0,1.0,4.0,4.0,2.0,2.0,5.0,6.0,5.0,3.0,5.0,5.0,5.0,3.0,4.0,6.0,4.0,3.0,5.0,2.0,1.0,6.0,3.0,3.0,2.0,4.0,3.0,6.0,4.0,2.0,2.0,2.0,5.0,1.0,3.0,1.0,1.0,3.0,2.0,2.0,1.0,5.0,4.0,,5.0,6.0,6.0,5.0,6.0,6.0,5.0,6.0,6.0,6.0,3.0,4.0,4.0,4.0,4.0,5.0,1.0,1.0,5.0,3.0,4.0,4.0,4.0,4.0,2.0,4.0,,2.0,3.0,2.0,4.0,2.0,4.0,,2.9,1.666667,2.0,5.0,5.0,4.666667,4.333333,5.7
83212,1031,2020-04-01 02:31:28,FR,29,Male,"College degree, bachelor, master",College degree,Student,United States,yes,Los Angeles,Married/cohabiting,2.0,Not sure,Isolated,1.0,1.0,Program A,,No,5.0,4.0,4.0,3.0,2.0,5.0,4.0,3.0,5.0,4.0,3.0,2.0,5.0,7.0,9.0,5.0,6.0,5.0,7.0,4.0,9.0,5.0,6.0,2.0,2.0,5.0,8.0,5.0,6.0,5.0,4.0,5.0,4.0,1.0,3.0,5.0,5.0,5.0,2.0,5.0,5.0,2.0,2.0,6.0,4.0,5.0,5.0,5.0,99.0,5.0,6.0,2.0,2.0,6.0,1.0,5.0,6.0,2.0,1.0,5.0,5.0,6.0,1.0,1.0,5.0,3.0,6.0,3.0,5.0,2.0,5.0,6.0,,6.0,4.0,4.0,6.0,5.0,5.0,4.0,6.0,5.0,6.0,2.0,5.0,6.0,1.0,4.0,4.0,2.0,4.0,5.0,6.0,5.0,5.0,5.0,3.0,1.0,6.0,,6.0,5.0,6.0,3.0,5.0,3.0,Ma fille commence a développer des troubles du langage (2.5 ans),3.9,3.333333,2.0,5.0,4.0,5.0,4.0,5.1
83723,647,2020-04-01 01:51:49,EN,31,Male,"Some College, short continuing education or equivalent",Up to 12 years of school,Full time employed,United States,no,Michigan,Married/cohabiting,1.0,Yes,Isolated,1.0,1.0,Program B,,No,1.0,2.0,1.0,5.0,4.0,1.0,5.0,5.0,1.0,1.0,2.0,1.0,2.0,3.0,7.0,3.0,0.0,5.0,2.0,6.0,2.0,1.0,6.0,4.0,6.0,5.0,0.0,5.0,5.0,5.0,2.0,1.0,6.0,1.0,1.0,6.0,6.0,5.0,1.0,3.0,5.0,5.0,2.0,2.0,5.0,3.0,4.0,6.0,1.0,1.0,1.0,1.0,1.0,3.0,1.0,1.0,1.0,4.0,1.0,6.0,6.0,4.0,1.0,1.0,1.0,1.0,1.0,1.0,1.0,1.0,2.0,1.0,,6.0,6.0,6.0,5.0,6.0,6.0,6.0,6.0,6.0,6.0,3.0,1.0,6.0,1.0,4.0,4.0,6.0,6.0,5.0,4.0,5.0,4.0,2.0,6.0,3.0,2.0,,4.0,5.0,6.0,6.0,2.0,2.0,,1.2,1.666667,1.0,5.666667,4.333333,4.0,4.0,5.9
83843,297,2020-04-02 01:38:13,ZH-T,61,Female,PhD/Doctorate,Up to 12 years of school,Full time employed,United States,no,California,Married/cohabiting,0.0,Yes,Life carries on with minor changes,,,,Program C,,,,,,,,,,,,,,,,,,,,,,,,,,,,,,,,,,,,,,,,,,,,,,,,,,,,,,,,,,,,,,,,,,,,,,,,,,,,,,,,,,,,,,,,,,,,,,,,,,,,,,,,,,,,,,,,,,,,
84257,397,2020-04-02 01:09:48,EN,33,Male,"College degree, bachelor, master",,Student,United States,no,florida,Single,0.0,Yes,Life carries on with minor changes,2.0,0.0,Program B,,Not sure,3.0,3.0,3.0,3.0,3.0,3.0,3.0,3.0,3.0,3.0,,3.0,3.0,6.0,6.0,5.0,6.0,3.0,5.0,5.0,2.0,4.0,4.0,4.0,4.0,4.0,5.0,,,,,,,,,,,,,,,,,,,,,,,,,,,,,,,,,,,,,,,,,,,,,,,,,,,,,,,,,,,,,,,,,,,,,,,,,,,,,,,,,3.0,3.0,,,,,,
84498,722,2020-04-01 00:56:54,ZH-T,31,Female,PhD/Doctorate,PhD/Doctorate,Full time employed,United States,yes,Minnesota,Single,0.0,Yes,Life carries on with minor changes,,,,Program D,Not sure,4.0,4.0,4.0,3.0,3.0,3.0,3.0,3.0,3.0,4.0,3.0,3.0,4.0,7.0,8.0,7.0,7.0,5.0,8.0,1.0,6.0,5.0,4.0,3.0,6.0,5.0,2.0,5.0,5.0,6.0,5.0,3.0,5.0,4.0,5.0,5.0,5.0,4.0,4.0,4.0,6.0,5.0,1.0,5.0,5.0,5.0,3.0,5.0,,5.0,,5.0,5.0,6.0,99.0,99.0,,5.0,4.0,4.0,4.0,5.0,5.0,6.0,2.0,6.0,5.0,5.0,5.0,5.0,6.0,4.0,,4.0,3.0,3.0,4.0,5.0,4.0,5.0,4.0,5.0,3.0,4.0,5.0,6.0,3.0,5.0,5.0,,2.0,3.0,,5.0,4.0,3.0,4.0,3.0,,,4.0,5.0,5.0,3.0,5.0,2.0,,3.4,3.333333,3.666667,4.0,5.0,5.333333,4.666667,4.0
84621,729,2020-04-02 00:48:15,PL,34,Female,"College degree, bachelor, master",College degree,Full time employed,United States,yes,,Married/cohabiting,1.0,Yes,Isolated,1.0,1.0,Program A,,No,3.0,4.0,3.0,4.0,2.0,3.0,4.0,3.0,3.0,3.0,5.0,4.0,4.0,1.0,3.0,0.0,1.0,1.0,3.0,5.0,0.0,6.0,5.0,5.0,5.0,5.0,0.0,5.0,5.0,5.0,3.0,3.0,3.0,4.0,3.0,4.0,6.0,5.0,2.0,5.0,6.0,6.0,4.0,1.0,4.0,4.0,4.0,5.0,4.0,1.0,3.0,5.0,4.0,5.0,1.0,5.0,5.0,4.0,2.0,4.0,4.0,5.0,3.0,5.0,1.0,5.0,6.0,5.0,4.0,3.0,4.0,5.0,,5.0,4.0,4.0,4.0,4.0,4.0,4.0,4.0,4.0,4.0,1.0,4.0,5.0,1.0,2.0,5.0,1.0,2.0,5.0,1.0,2.0,4.0,1.0,5.0,1.0,2.0,,1.0,2.0,5.0,4.0,5.0,1.0,,3.0,4.333333,3.333333,5.333333,5.666667,2.666667,4.0,4.1
84671,915,2020-04-01 00:46:47,EN,36,Female,"College degree, bachelor, master",Up to 9 years of school,Full time employed,United States,no,Puerto Rico,Single,0.0,Yes,Isolated,1.0,0.0,Program A,,No,4.0,3.0,5.0,4.0,4.0,3.0,2.0,3.0,5.0,4.0,4.0,3.0,3.0,2.0,5.0,0.0,1.0,1.0,0.0,5.0,,1.0,1.0,1.0,,,0.0,6.0,6.0,6.0,4.0,1.0,3.0,2.0,3.0,6.0,6.0,6.0,6.0,5.0,6.0,4.0,1.0,3.0,6.0,6.0,2.0,6.0,6.0,99.0,99.0,99.0,4.0,5.0,99.0,3.0,99.0,6.0,6.0,6.0,6.0,6.0,99.0,5.0,99.0,4.0,5.0,6.0,6.0,2.0,6.0,6.0,,4.0,5.0,3.0,4.0,4.0,5.0,5.0,5.0,5.0,3.0,6.0,2.0,5.0,1.0,3.0,6.0,1.0,1.0,2.0,2.0,4.0,6.0,3.0,5.0,1.0,6.0,,6.0,5.0,6.0,6.0,6.0,1.0,,3.5,3.333333,2.0,4.333333,5.0,5.0,5.666667,4.3
84772,1534,2020-04-01 00:49:02,BG,48,Female,"College degree, bachelor, master",College degree,Part time employed,United States,yes,<U+041D><U+044E> <U+0419><U+043E><U+0440><U+043A>,Other or would rather not say,2.0,Yes,Isolated,0.0,1.0,,Program D,No,3.0,4.0,3.0,4.0,3.0,4.0,4.0,2.0,2.0,2.0,2.0,2.0,2.0,5.0,6.0,4.0,6.0,5.0,3.0,3.0,6.0,5.0,6.0,5.0,6.0,6.0,2.0,5.0,4.0,6.0,1.0,4.0,4.0,2.0,3.0,5.0,5.0,4.0,2.0,4.0,4.0,4.0,1.0,4.0,6.0,5.0,2.0,4.0,5.0,6.0,6.0,4.0,3.0,2.0,2.0,1.0,2.0,6.0,5.0,6.0,4.0,6.0,4.0,1.0,2.0,2.0,1.0,1.0,6.0,2.0,5.0,5.0,,1.0,2.0,3.0,5.0,6.0,6.0,5.0,6.0,4.0,1.0,4.0,1.0,5.0,1.0,4.0,5.0,1.0,1.0,2.0,6.0,3.0,2.0,6.0,4.0,4.0,4.0,,6.0,6.0,6.0,6.0,5.0,4.0,,2.9,2.0,2.333333,4.666667,4.0,5.333333,4.666667,3.9
84841,977,2020-04-02 00:34:22,SME,60,Female,"College degree, bachelor, master",Up to 12 years of school,Retired,United States,yes,California,Married/cohabiting,0.0,Yes,Life carries on with minor changes,1.0,0.0,,Program C,No,3.0,3.0,4.0,2.0,4.0,3.0,3.0,2.0,3.0,3.0,2.0,1.0,5.0,9.0,9.0,6.0,6.0,7.0,9.0,8.0,8.0,6.0,6.0,6.0,6.0,6.0,8.0,1.0,2.0,1.0,2.0,2.0,2.0,4.0,4.0,4.0,4.0,4.0,3.0,4.0,4.0,4.0,2.0,4.0,4.0,4.0,5.0,3.0,,,,,,,,,,,,,,,,,,,,,,,,,,,,,,,,,,,,,,,,,,,,,,,,,,,,,,,,,,,,3.2,2.666667,3.666667,4.0,4.0,4.333333,3.0,
85057,591,2020-04-02 00:07:46,EN,55,Female,"College degree, bachelor, master",Up to 12 years of school,Not employed,United States,no,Maine,Married/cohabiting,2.0,Yes,Isolated,2.0,0.0,Program B,,No,5.0,4.0,5.0,2.0,1.0,5.0,3.0,2.0,5.0,4.0,3.0,5.0,5.0,2.0,3.0,3.0,5.0,4.0,2.0,2.0,0.0,6.0,6.0,6.0,6.0,6.0,0.0,6.0,5.0,6.0,6.0,1.0,5.0,3.0,2.0,5.0,6.0,6.0,4.0,6.0,6.0,2.0,4.0,5.0,6.0,5.0,1.0,6.0,,,,,,,,,,,,,,,,,,,,,,,,,,,,,,,,,,,,,,,,,,,,,,,,,,,,,,,,,,,,4.4,4.333333,2.333333,5.0,4.666667,4.666667,5.666667,
85084,811,2020-04-02 00:08:47,EN,62,Female,"Some College, short continuing education or equivalent",Up to 12 years of school,Self-employed,United States,no,Colorado,Married/cohabiting,0.0,Yes,Isolated,0.0,0.0,,Program D,No,4.0,3.0,4.0,4.0,3.0,3.0,3.0,3.0,3.0,3.0,4.0,3.0,4.0,5.0,5.0,2.0,1.0,4.0,1.0,2.0,0.0,6.0,6.0,5.0,4.0,3.0,0.0,6.0,6.0,6.0,6.0,3.0,5.0,4.0,4.0,2.0,5.0,4.0,4.0,4.0,6.0,3.0,4.0,3.0,6.0,4.0,4.0,4.0,3.0,99.0,99.0,2.0,6.0,6.0,99.0,99.0,99.0,6.0,6.0,6.0,6.0,6.0,99.0,5.0,3.0,5.0,6.0,4.0,6.0,6.0,6.0,5.0,,4.0,5.0,4.0,4.0,4.0,4.0,4.0,4.0,4.0,4.0,2.0,3.0,5.0,3.0,5.0,3.0,1.0,1.0,3.0,4.0,4.0,3.0,3.0,5.0,4.0,3.0,,3.0,4.0,4.0,5.0,5.0,1.0,"The not knowing the future is a constant stressor. Will life ever be normal again, will we be able to get healthcare in the near future.",3.1,3.666667,4.333333,4.0,4.333333,4.0,3.666667,4.1
85226,139,2020-04-01 23:41:54,EN,70,Male,PhD/Doctorate,College degree,Retired,United States,no,,Divorced/widowed,0.0,Yes,Isolated,0.0,0.0,,,,,,,,,,,,,,,,,,,,,,,,,,,,,,,,,,,,,,,,,,,,,,,,,,,,,,,,,,,,,,,,,,,,,,,,,,,,,,,,,,,,,,,,,,,,,,,,,,,,,,,,,,,,,,,,,,,,,,
85239,1646,2020-04-01 00:05:34,EN,76,Female,PhD/Doctorate,Some College or equivalent,Retired,United States,no,Michigan,Married/cohabiting,0.0,Yes,Isolated,1.0,0.0,,Program C,No,2.0,2.0,2.0,5.0,4.0,1.0,5.0,5.0,2.0,1.0,2.0,1.0,2.0,7.0,9.0,5.0,8.0,9.0,7.0,5.0,2.0,5.0,5.0,5.0,6.0,5.0,2.0,5.0,6.0,6.0,1.0,2.0,4.0,2.0,2.0,5.0,5.0,5.0,2.0,5.0,5.0,2.0,2.0,5.0,5.0,6.0,2.0,6.0,99.0,99.0,99.0,99.0,4.0,4.0,2.0,1.0,99.0,6.0,2.0,5.0,5.0,5.0,99.0,5.0,99.0,4.0,5.0,2.0,2.0,1.0,2.0,2.0,,6.0,6.0,5.0,6.0,6.0,6.0,6.0,6.0,5.0,5.0,2.0,1.0,6.0,1.0,6.0,4.0,1.0,1.0,6.0,5.0,4.0,5.0,5.0,6.0,5.0,4.0,,2.0,6.0,2.0,5.0,2.0,5.0,,1.5,1.666667,2.0,5.0,4.0,5.0,5.666667,5.7
85241,1153,2020-03-31 23:57:06,EN,66,Female,"College degree, bachelor, master",College degree,Self-employed,United States,no,Indiana,Married/cohabiting,0.0,Yes,Isolated,1.0,0.0,Program B,,No,2.0,2.0,2.0,4.0,3.0,2.0,4.0,3.0,3.0,2.0,2.0,2.0,2.0,7.0,8.0,5.0,6.0,7.0,3.0,8.0,1.0,6.0,6.0,6.0,6.0,6.0,0.0,6.0,6.0,6.0,2.0,4.0,1.0,5.0,2.0,5.0,4.0,4.0,3.0,5.0,6.0,2.0,2.0,5.0,4.0,4.0,3.0,4.0,2.0,2.0,99.0,99.0,4.0,2.0,2.0,2.0,2.0,3.0,2.0,5.0,5.0,5.0,2.0,2.0,2.0,2.0,2.0,2.0,5.0,6.0,4.0,2.0,,6.0,6.0,6.0,6.0,6.0,6.0,6.0,6.0,6.0,6.0,4.0,2.0,5.0,1.0,5.0,5.0,2.0,2.0,5.0,5.0,3.0,4.0,5.0,5.0,6.0,4.0,,4.0,4.0,5.0,3.0,3.0,2.0,"I am unable to see my 35-year old son with autism though we are using social media to ""see"" each other every day.  His routine has been greatly disrupted, though his staff is working hard to ensure that as much of his routine, as possible, can be maintained within the home.",2.3,2.0,3.0,4.0,4.333333,4.666667,4.0,6.0
85276,101,2020-04-01 23:36:15,PL,34,Female,"Some College, short continuing education or equivalent",College degree,Not employed,United States,yes,,Married/cohabiting,1.0,Yes,Life carries on with minor changes,,,,,,,,,,,,,,,,,,,,,,,,,,,,,,,,,,,,,,,,,,,,,,,,,,,,,,,,,,,,,,,,,,,,,,,,,,,,,,,,,,,,,,,,,,,,,,,,,,,,,,,,,,,,,,,,,,,,,,,,
85332,786,2020-03-31 23:40:41,EN,25,Other/would rather not say,"College degree, bachelor, master",PhD/Doctorate,Full time employed,United States,no,Massachusetts,Married/cohabiting,0.0,Yes,Isolated,2.0,0.0,,Program C,No,4.0,5.0,5.0,2.0,2.0,3.0,1.0,4.0,4.0,2.0,3.0,3.0,4.0,3.0,7.0,0.0,0.0,5.0,3.0,8.0,0.0,4.0,6.0,6.0,6.0,6.0,0.0,2.0,6.0,5.0,5.0,2.0,2.0,6.0,6.0,5.0,6.0,4.0,2.0,3.0,6.0,6.0,4.0,5.0,3.0,5.0,4.0,5.0,1.0,3.0,99.0,99.0,4.0,6.0,5.0,5.0,99.0,5.0,2.0,6.0,6.0,6.0,1.0,2.0,2.0,6.0,6.0,5.0,5.0,5.0,5.0,2.0,I don't know what to do to help. I wanted to try making masks but our sewing machine is broken. One of my partners is epileptic and has asthma and their epilepsy is getting worse. I won't be able to fly home for my grandfather's funeral.,5.0,6.0,5.0,4.0,5.0,6.0,5.0,6.0,6.0,5.0,1.0,1.0,6.0,1.0,4.0,1.0,5.0,5.0,4.0,4.0,2.0,1.0,2.0,5.0,4.0,1.0,"There was no Does not apply response, but I haven't had in person contact with friends, family, or coworkers since early March.",1.0,5.0,5.0,2.0,5.0,2.0,One of my partners is miserable because his top surgery (transgender double mastectomy) has been postponed and it's not safe for him to bind with a respiratory infection going around. This has made life in our three room apartment (that we share with our epileptic other partner) stressful.,3.8,3.333333,4.666667,5.0,5.0,3.666667,4.333333,5.3
85351,427,2020-04-01 23:32:17,FR,25,Male,"College degree, bachelor, master",College degree,Full time employed,United States,yes,Californie,Married/cohabiting,0.0,Yes,Life carries on as usual,,,,Program C,No,3.0,2.0,3.0,4.0,5.0,2.0,4.0,4.0,3.0,3.0,2.0,2.0,2.0,7.0,5.0,4.0,6.0,7.0,3.0,8.0,3.0,4.0,5.0,5.0,6.0,6.0,0.0,5.0,4.0,5.0,2.0,4.0,5.0,5.0,5.0,4.0,5.0,5.0,4.0,5.0,6.0,4.0,4.0,5.0,5.0,5.0,5.0,4.0,,,,,,,,,,,,,,,,,,,,,,,,,,,,,,,,,,,,,,,,,,,,,,,,,,,,,,,,,,,,2.3,2.0,4.333333,4.333333,5.0,4.333333,3.666667,
85361,1544,2020-03-31 23:48:29,EN,42,Male,"College degree, bachelor, master",College degree,Full time employed,United States,yes,Michigan,Married/cohabiting,0.0,Yes,Isolated,1.0,0.0,Program A,,No,3.0,3.0,3.0,5.0,3.0,2.0,3.0,3.0,5.0,3.0,3.0,3.0,3.0,3.0,7.0,3.0,1.0,5.0,6.0,8.0,1.0,6.0,6.0,6.0,6.0,6.0,0.0,6.0,6.0,5.0,1.0,1.0,3.0,6.0,2.0,5.0,6.0,5.0,1.0,5.0,6.0,5.0,6.0,4.0,5.0,5.0,2.0,6.0,2.0,5.0,99.0,99.0,4.0,4.0,1.0,4.0,99.0,1.0,6.0,6.0,6.0,6.0,99.0,2.0,2.0,2.0,6.0,3.0,6.0,1.0,3.0,1.0,,5.0,6.0,6.0,6.0,6.0,6.0,6.0,6.0,6.0,6.0,1.0,4.0,5.0,5.0,5.0,4.0,1.0,1.0,5.0,6.0,6.0,5.0,5.0,4.0,1.0,2.0,,6.0,6.0,6.0,5.0,6.0,1.0,"Lack of PPE and ventilators, lack of social cohesion and acknowledgment of interdependence. General ignorance and selfishness.",2.9,3.0,3.333333,5.666667,5.333333,3.333333,5.333333,5.9
85364,702,2020-03-31 23:33:54,EN,53,Female,"College degree, bachelor, master",Up to 12 years of school,Full time employed,United States,no,Maryland,Married/cohabiting,0.0,Yes,Isolated,1.0,0.0,Program A,,No,3.0,4.0,4.0,4.0,3.0,4.0,2.0,2.0,3.0,4.0,1.0,3.0,1.0,1.0,2.0,0.0,0.0,0.0,0.0,0.0,0.0,6.0,6.0,6.0,6.0,6.0,0.0,5.0,5.0,6.0,1.0,1.0,1.0,6.0,5.0,3.0,1.0,1.0,6.0,4.0,2.0,6.0,5.0,3.0,2.0,6.0,2.0,5.0,6.0,1.0,99.0,99.0,5.0,1.0,1.0,1.0,99.0,2.0,6.0,6.0,6.0,4.0,1.0,1.0,1.0,2.0,2.0,1.0,1.0,1.0,6.0,1.0,,6.0,6.0,6.0,6.0,6.0,5.0,6.0,6.0,4.0,6.0,4.0,,1.0,1.0,1.0,,,1.0,6.0,2.0,4.0,,1.0,5.0,1.0,1.0,,1.0,2.0,2.0,2.0,4.0,2.0,,3.5,1.666667,5.0,1.0,4.0,2.333333,5.333333,5.7
85416,1538,2020-04-01 23:41:53,EN,51,Female,"Some College, short continuing education or equivalent",Up to 12 years of school,Not employed,United States,no,California,Single,0.0,Yes,Isolated,0.0,0.0,,Program D,Not sure,4.0,5.0,5.0,2.0,2.0,5.0,2.0,2.0,3.0,5.0,5.0,5.0,5.0,4.0,8.0,,,5.0,4.0,9.0,,6.0,5.0,6.0,5.0,6.0,0.0,5.0,5.0,4.0,4.0,2.0,2.0,6.0,4.0,4.0,5.0,1.0,5.0,6.0,6.0,6.0,3.0,5.0,5.0,3.0,4.0,4.0,5.0,99.0,99.0,99.0,5.0,6.0,99.0,99.0,99.0,5.0,6.0,5.0,6.0,6.0,99.0,99.0,4.0,5.0,5.0,5.0,5.0,4.0,99.0,99.0,"I self-isolate a lot due to mental health and being an introvert.  Also, ITMFA",3.0,5.0,4.0,3.0,4.0,4.0,4.0,5.0,2.0,2.0,1.0,1.0,3.0,1.0,1.0,4.0,1.0,1.0,2.0,4.0,2.0,1.0,1.0,4.0,1.0,1.0,"many of the above I wished to answer ""not applicable"" viz my ""job"", ""colleagues"", video games, none of which I have or have reasonable access to.",1.0,5.0,5.0,4.0,2.0,2.0,"Secondary economies run my poor neighborhood.  With them missing my neighbors, and therefore me and many others, are at greater risk.",4.3,5.0,4.333333,2.666667,6.0,4.666667,3.333333,3.6
85444,295,2020-04-01 23:17:11,KO,29,Male,"College degree, bachelor, master",Up to 12 years of school,Student,United States,yes,Indiana,Single,0.0,No,Life carries on as usual,,,,Program D,No,5.0,5.0,3.0,2.0,2.0,5.0,2.0,2.0,5.0,5.0,5.0,5.0,5.0,8.0,9.0,6.0,7.0,7.0,8.0,6.0,8.0,3.0,4.0,4.0,5.0,6.0,5.0,5.0,4.0,4.0,1.0,1.0,1.0,5.0,2.0,5.0,4.0,6.0,5.0,4.0,5.0,4.0,3.0,5.0,5.0,5.0,5.0,5.0,,,,,3.0,6.0,3.0,,,,,3.0,,,,5.0,,6.0,6.0,,,,,,,,,,,,,,,,,,,,,,,,,,,,,,,,,,,,,,,,,4.4,5.0,3.0,4.0,4.333333,4.666667,4.0,
85468,837,2020-03-31 23:22:31,FR,40,Female,"College degree, bachelor, master",College degree,Full time employed,United States,yes,Texas,Married/cohabiting,0.0,Yes,Isolated,1.0,0.0,Program B,,Not sure,2.0,3.0,3.0,4.0,3.0,4.0,3.0,4.0,2.0,2.0,4.0,4.0,4.0,3.0,6.0,1.0,9.0,2.0,1.0,8.0,1.0,6.0,6.0,5.0,5.0,5.0,2.0,5.0,5.0,6.0,2.0,2.0,1.0,3.0,2.0,6.0,6.0,5.0,4.0,5.0,2.0,4.0,3.0,4.0,4.0,5.0,2.0,5.0,3.0,3.0,99.0,5.0,4.0,1.0,1.0,4.0,99.0,5.0,3.0,6.0,6.0,4.0,1.0,1.0,2.0,2.0,1.0,5.0,5.0,2.0,3.0,1.0,,5.0,6.0,4.0,4.0,6.0,5.0,3.0,6.0,5.0,5.0,2.0,3.0,3.0,1.0,1.0,4.0,4.0,4.0,4.0,5.0,4.0,5.0,3.0,4.0,1.0,5.0,,4.0,2.0,6.0,3.0,2.0,1.0,Je suis tombée enceinte.,2.6,4.0,2.0,4.666667,3.666667,4.0,5.0,4.9
85480,926,2020-03-31 23:22:01,ZH-T,61,Female,"College degree, bachelor, master",Up to 12 years of school,Self-employed,United States,no,California,Married/cohabiting,2.0,Yes,Isolated,1.0,0.0,Program A,,No,2.0,1.0,2.0,5.0,4.0,2.0,4.0,4.0,2.0,2.0,1.0,1.0,1.0,8.0,6.0,8.0,8.0,8.0,9.0,1.0,9.0,4.0,5.0,4.0,5.0,5.0,2.0,5.0,6.0,6.0,1.0,5.0,4.0,2.0,2.0,5.0,5.0,5.0,2.0,4.0,5.0,4.0,2.0,5.0,5.0,5.0,4.0,5.0,6.0,2.0,99.0,2.0,5.0,6.0,99.0,5.0,99.0,6.0,6.0,5.0,99.0,5.0,6.0,6.0,1.0,2.0,5.0,2.0,6.0,5.0,6.0,6.0,,5.0,5.0,5.0,5.0,5.0,5.0,5.0,5.0,5.0,5.0,5.0,2.0,6.0,1.0,5.0,1.0,4.0,2.0,5.0,5.0,5.0,5.0,5.0,5.0,4.0,6.0,,3.0,4.0,5.0,5.0,4.0,5.0,,1.8,1.0,2.0,5.0,4.333333,5.0,4.333333,5.0
85629,1063,2020-03-31 23:00:28,EN,24,Male,"College degree, bachelor, master",College degree,Full time employed,United States,no,Virginia,Single,0.0,Yes,Isolated,1.0,0.0,Program B,,Yes,3.0,2.0,3.0,4.0,3.0,2.0,4.0,3.0,3.0,1.0,1.0,1.0,3.0,5.0,8.0,3.0,8.0,8.0,8.0,5.0,7.0,4.0,5.0,2.0,5.0,4.0,7.0,5.0,5.0,4.0,2.0,3.0,3.0,3.0,5.0,5.0,5.0,4.0,3.0,3.0,4.0,3.0,2.0,5.0,6.0,5.0,2.0,5.0,2.0,2.0,99.0,2.0,3.0,2.0,2.0,2.0,99.0,4.0,2.0,5.0,4.0,3.0,2.0,4.0,2.0,2.0,5.0,2.0,1.0,2.0,4.0,2.0,,5.0,5.0,5.0,5.0,5.0,5.0,5.0,6.0,5.0,5.0,4.0,5.0,5.0,2.0,5.0,2.0,2.0,2.0,5.0,5.0,3.0,4.0,4.0,5.0,5.0,4.0,,3.0,2.0,2.0,4.0,5.0,3.0,"Definitely, at times, feel heightened anxiety. Usually comes as sharp chest pain then fades.",2.4,1.666667,3.333333,4.333333,3.333333,5.333333,5.0,5.1
85725,1507,2020-04-01 22:47:33,EN,72,Female,"College degree, bachelor, master",Some College or equivalent,Retired,United States,no,Indiana,Married/cohabiting,0.0,Yes,Isolated,1.0,0.0,Program A,,No,3.0,3.0,4.0,3.0,2.0,2.0,3.0,1.0,4.0,3.0,3.0,4.0,3.0,7.0,9.0,5.0,10.0,10.0,8.0,10.0,0.0,6.0,6.0,6.0,6.0,6.0,0.0,5.0,5.0,6.0,1.0,4.0,4.0,4.0,5.0,3.0,5.0,5.0,2.0,4.0,4.0,4.0,4.0,5.0,5.0,2.0,5.0,4.0,2.0,99.0,99.0,99.0,6.0,6.0,5.0,6.0,99.0,6.0,6.0,6.0,6.0,6.0,99.0,6.0,99.0,5.0,6.0,99.0,6.0,1.0,6.0,2.0,,,,,,,,,,,,,,,,,,,,,,,,,,,,,,,,,,,,3.4,3.333333,4.333333,5.0,4.0,4.333333,2.666667,
85743,1378,2020-03-31 22:39:37,EN,54,Female,"College degree, bachelor, master",Up to 12 years of school,Full time employed,United States,no,Indiana,Married/cohabiting,2.0,Yes,Isolated,3.0,0.0,Program A,,No,3.0,3.0,4.0,2.0,3.0,3.0,3.0,3.0,4.0,3.0,4.0,3.0,3.0,4.0,6.0,2.0,3.0,0.0,3.0,8.0,0.0,6.0,6.0,6.0,6.0,6.0,0.0,6.0,6.0,6.0,1.0,2.0,4.0,5.0,5.0,2.0,3.0,1.0,5.0,3.0,5.0,5.0,5.0,5.0,5.0,4.0,4.0,4.0,6.0,5.0,6.0,6.0,4.0,2.0,2.0,6.0,99.0,6.0,3.0,5.0,6.0,6.0,1.0,2.0,3.0,4.0,5.0,5.0,4.0,2.0,5.0,1.0,,5.0,2.0,4.0,4.0,2.0,2.0,2.0,6.0,2.0,5.0,2.0,4.0,6.0,2.0,3.0,5.0,1.0,1.0,4.0,4.0,4.0,5.0,4.0,4.0,2.0,3.0,,3.0,4.0,4.0,5.0,5.0,3.0,,3.3,3.333333,5.0,2.0,4.333333,4.0,3.666667,3.4
85791,565,2020-03-31 22:16:42,ZH-T,33,Male,PhD/Doctorate,Up to 12 years of school,Part time employed,United States,yes,Virginia,Single,0.0,Yes,Life carries on with minor changes,2.0,0.0,Program A,,,3.0,3.0,3.0,3.0,3.0,3.0,5.0,3.0,1.0,3.0,5.0,2.0,4.0,5.0,8.0,8.0,8.0,8.0,5.0,,8.0,5.0,3.0,3.0,6.0,5.0,5.0,6.0,6.0,6.0,6.0,3.0,5.0,5.0,5.0,4.0,4.0,4.0,5.0,5.0,5.0,5.0,5.0,5.0,5.0,3.0,5.0,3.0,1.0,3.0,1.0,4.0,4.0,4.0,2.0,4.0,2.0,4.0,3.0,4.0,4.0,4.0,3.0,3.0,3.0,4.0,3.0,4.0,5.0,2.0,4.0,2.0,,3.0,2.0,4.0,2.0,4.0,4.0,5.0,3.0,4.0,3.0,4.0,4.0,5.0,4.0,5.0,6.0,1.0,1.0,5.0,4.0,4.0,4.0,5.0,4.0,4.0,4.0,,5.0,5.0,5.0,4.0,5.0,4.0,,2.6,3.666667,4.333333,3.333333,5.0,4.0,2.666667,3.4
85798,980,2020-04-01 22:23:07,EN,43,Female,"Some College, short continuing education or equivalent",Up to 12 years of school,Full time employed,United States,no,California,Divorced/widowed,1.0,Yes,Life carries on with minor changes,,,,Program D,No,4.0,3.0,3.0,3.0,3.0,3.0,2.0,3.0,3.0,3.0,3.0,2.0,3.0,4.0,7.0,3.0,5.0,5.0,5.0,8.0,3.0,5.0,6.0,5.0,6.0,6.0,2.0,4.0,5.0,5.0,1.0,2.0,2.0,6.0,6.0,2.0,2.0,2.0,5.0,4.0,5.0,3.0,4.0,5.0,6.0,6.0,3.0,5.0,5.0,2.0,5.0,4.0,5.0,4.0,2.0,99.0,5.0,5.0,4.0,5.0,5.0,99.0,2.0,3.0,4.0,5.0,3.0,3.0,4.0,3.0,5.0,2.0,,,,,,,,,,,,,,,,,,,,,,,,,,,,,,,,,,,,3.2,2.666667,5.666667,2.0,4.0,4.666667,5.0,
85822,695,2020-03-31 22:12:35,EN,56,Female,"College degree, bachelor, master",PhD/Doctorate,Full time employed,United States,no,Washington,Single,1.0,No,Isolated,1.0,0.0,,Program C,No,4.0,5.0,5.0,2.0,2.0,5.0,3.0,1.0,3.0,5.0,3.0,2.0,3.0,8.0,9.0,1.0,2.0,5.0,2.0,9.0,0.0,5.0,5.0,6.0,6.0,6.0,0.0,4.0,5.0,5.0,2.0,5.0,2.0,3.0,2.0,5.0,6.0,6.0,2.0,6.0,6.0,6.0,2.0,6.0,6.0,4.0,2.0,6.0,3.0,5.0,6.0,6.0,2.0,5.0,2.0,2.0,99.0,6.0,3.0,4.0,4.0,6.0,6.0,6.0,2.0,4.0,6.0,3.0,5.0,5.0,6.0,6.0,,5.0,6.0,6.0,6.0,6.0,6.0,6.0,6.0,5.0,5.0,1.0,3.0,6.0,1.0,5.0,5.0,1.0,1.0,3.0,3.0,3.0,4.0,5.0,5.0,4.0,1.0,,6.0,6.0,5.0,5.0,5.0,5.0,"Loss of education for my child. There is no plan for our K-12 education to respond to what is happening in our town. He is basically studying a curriculum that I wrote myself, but I am a college professor and we are taking our educational system completely online - which is an enormous undertaking. So - the unpreparedness of our educational systems is causing me an enormous amount of stress, personally.",4.3,2.666667,2.333333,5.666667,6.0,5.666667,5.0,5.7
85839,956,2020-03-31 22:13:45,EN,53,Female,"College degree, bachelor, master",Some College or equivalent,Part time employed,United States,no,Colorado,Married/cohabiting,2.0,Yes,Isolated,4.0,2.0,Program A,,No,3.0,3.0,4.0,3.0,3.0,4.0,3.0,3.0,3.0,3.0,3.0,2.0,3.0,4.0,8.0,3.0,3.0,5.0,4.0,7.0,2.0,4.0,3.0,4.0,4.0,5.0,2.0,5.0,5.0,6.0,5.0,4.0,4.0,4.0,4.0,4.0,5.0,5.0,3.0,4.0,5.0,4.0,2.0,5.0,5.0,4.0,2.0,4.0,6.0,5.0,6.0,5.0,5.0,5.0,2.0,5.0,6.0,6.0,5.0,3.0,3.0,2.0,5.0,5.0,4.0,5.0,6.0,4.0,6.0,2.0,6.0,5.0,,5.0,4.0,5.0,3.0,5.0,5.0,5.0,5.0,5.0,5.0,2.0,5.0,5.0,2.0,2.0,3.0,4.0,2.0,4.0,5.0,5.0,2.0,3.0,4.0,2.0,3.0,,2.0,4.0,3.0,3.0,3.0,2.0,,3.2,2.666667,3.666667,4.666667,4.333333,5.0,4.333333,4.7
85860,976,2020-03-31 22:07:49,LT,44,Female,"College degree, bachelor, master",College degree,Full time employed,United States,yes,"Atlanta, Dzordzija",Married/cohabiting,2.0,Yes,Life carries on with minor changes,,,,Program D,No,3.0,2.0,3.0,4.0,3.0,2.0,3.0,4.0,3.0,2.0,4.0,3.0,4.0,5.0,5.0,5.0,8.0,5.0,7.0,6.0,3.0,5.0,5.0,5.0,5.0,5.0,0.0,4.0,5.0,5.0,2.0,4.0,2.0,4.0,5.0,5.0,4.0,2.0,5.0,2.0,5.0,2.0,4.0,5.0,5.0,5.0,2.0,5.0,5.0,2.0,4.0,5.0,5.0,5.0,5.0,5.0,99.0,5.0,2.0,2.0,4.0,4.0,5.0,5.0,2.0,4.0,5.0,5.0,5.0,2.0,5.0,5.0,,5.0,5.0,5.0,5.0,5.0,5.0,5.0,5.0,5.0,5.0,4.0,5.0,5.0,4.0,4.0,2.0,2.0,2.0,2.0,4.0,2.0,3.0,3.0,4.0,6.0,2.0,,2.0,2.0,2.0,3.0,4.0,2.0,"Daugiau pasitiketi Dievu ir jo zodziu, nei vyriausybe ir zmonemis.",2.5,3.666667,3.666667,2.666667,3.0,4.333333,5.0,5.0
85877,1133,2020-03-31 22:06:50,EN,27,Female,"College degree, bachelor, master",College degree,Not employed,United States,no,Montana,Single,0.0,Yes,Life carries on with minor changes,2.0,0.0,Program A,,No,3.0,3.0,4.0,3.0,2.0,2.0,3.0,3.0,1.0,3.0,2.0,2.0,2.0,1.0,4.0,5.0,0.0,6.0,2.0,6.0,6.0,4.0,6.0,2.0,5.0,4.0,5.0,5.0,2.0,3.0,3.0,3.0,2.0,6.0,6.0,5.0,5.0,4.0,5.0,4.0,5.0,5.0,4.0,5.0,6.0,4.0,5.0,4.0,6.0,99.0,99.0,5.0,6.0,4.0,3.0,4.0,99.0,5.0,4.0,4.0,5.0,6.0,4.0,4.0,3.0,4.0,2.0,6.0,3.0,2.0,5.0,2.0,,4.0,5.0,4.0,4.0,3.0,4.0,3.0,4.0,3.0,2.0,5.0,5.0,6.0,2.0,2.0,5.0,2.0,1.0,4.0,2.0,5.0,4.0,2.0,5.0,4.0,3.0,,5.0,3.0,4.0,3.0,5.0,4.0,,2.9,2.0,4.666667,3.666667,4.666667,4.666667,3.333333,3.6
85900,898,2020-03-31 21:59:13,EN,64,Female,"College degree, bachelor, master",College degree,Part time employed,United States,no,New Mexico,Married/cohabiting,0.0,Yes,Isolated,1.0,0.0,,Program D,No,3.0,4.0,4.0,3.0,2.0,2.0,3.0,2.0,3.0,3.0,4.0,2.0,4.0,6.0,8.0,1.0,8.0,9.0,6.0,10.0,0.0,6.0,6.0,5.0,5.0,4.0,0.0,6.0,6.0,6.0,2.0,4.0,3.0,5.0,4.0,3.0,5.0,5.0,2.0,4.0,2.0,5.0,2.0,3.0,5.0,4.0,3.0,4.0,1.0,5.0,99.0,1.0,5.0,1.0,1.0,4.0,99.0,4.0,4.0,6.0,6.0,2.0,2.0,1.0,1.0,2.0,1.0,6.0,3.0,1.0,5.0,2.0,,4.0,3.0,3.0,3.0,4.0,4.0,3.0,2.0,4.0,4.0,3.0,1.0,1.0,1.0,3.0,5.0,1.0,1.0,2.0,4.0,4.0,5.0,4.0,2.0,1.0,1.0,,4.0,5.0,3.0,2.0,5.0,2.0,,3.3,3.333333,4.333333,5.0,3.666667,4.333333,4.0,3.4
85919,2433,2020-03-31 22:20:09,SME,49,Male,"College degree, bachelor, master",Up to 6 years of school,Full time employed,United States,yes,TExas,Married/cohabiting,2.0,No,Isolated,4.0,0.0,Program B,,No,4.0,1.0,2.0,5.0,5.0,1.0,5.0,4.0,1.0,1.0,1.0,1.0,3.0,9.0,10.0,5.0,8.0,8.0,7.0,8.0,7.0,5.0,4.0,4.0,4.0,5.0,5.0,5.0,6.0,6.0,1.0,4.0,1.0,4.0,3.0,5.0,4.0,4.0,3.0,5.0,4.0,5.0,2.0,5.0,5.0,5.0,2.0,5.0,2.0,2.0,2.0,2.0,2.0,2.0,2.0,2.0,3.0,4.0,2.0,2.0,2.0,2.0,2.0,2.0,2.0,2.0,2.0,2.0,2.0,2.0,2.0,2.0,,5.0,6.0,6.0,6.0,6.0,5.0,5.0,6.0,5.0,5.0,5.0,4.0,4.0,5.0,5.0,6.0,4.0,4.0,5.0,4.0,5.0,5.0,4.0,4.0,4.0,5.0,,5.0,6.0,5.0,4.0,4.0,4.0,"La situación de los trabajadores temporales, no afecta mi seguridad pero es un sector que mantengo en mi mente",1.5,1.666667,3.0,4.0,4.666667,5.0,5.0,5.5
85971,403,2020-04-01 21:34:40,RU,35,Female,PhD/Doctorate,College degree,Student,United States,yes,North Chelmsford,Married/cohabiting,0.0,No,Isolated,1.0,0.0,Program A,,No,3.0,3.0,3.0,4.0,3.0,4.0,3.0,3.0,1.0,2.0,2.0,1.0,1.0,8.0,8.0,,,4.0,3.0,5.0,2.0,3.0,2.0,2.0,5.0,2.0,2.0,5.0,5.0,6.0,1.0,5.0,2.0,,,,,,,,,,,,,,,,,,,,,,,,,,,,,,,,,,,,,,,,,,,,,,,,,,,,,,,,,,,,,,,,,,,,,,,,,,,2.7,1.333333,,,,,,
85984,230,2020-04-01 21:31:05,EN,51,Female,"College degree, bachelor, master",Some College or equivalent,Full time employed,United States,no,,Single,0.0,Yes,Isolated,0.0,0.0,,,,,,,,,,,,,,,,,,,,,,,,,,,,,,,,,,,,,,,,,,,,,,,,,,,,,,,,,,,,,,,,,,,,,,,,,,,,,,,,,,,,,,,,,,,,,,,,,,,,,,,,,,,,,,,,,,,,,,
86028,1241,2020-04-01 21:36:51,EN,59,Female,"College degree, bachelor, master",Some College or equivalent,Full time employed,United States,no,California,Divorced/widowed,0.0,Yes,Isolated,0.0,0.0,Program A,,No,3.0,3.0,4.0,4.0,4.0,2.0,4.0,4.0,2.0,2.0,3.0,3.0,3.0,6.0,7.0,6.0,6.0,6.0,5.0,7.0,3.0,6.0,1.0,5.0,5.0,6.0,0.0,6.0,6.0,5.0,1.0,5.0,5.0,5.0,4.0,5.0,5.0,5.0,2.0,4.0,5.0,3.0,2.0,5.0,5.0,6.0,1.0,6.0,4.0,3.0,99.0,5.0,4.0,4.0,3.0,99.0,99.0,6.0,3.0,6.0,6.0,4.0,3.0,4.0,4.0,4.0,4.0,3.0,3.0,3.0,5.0,3.0,,4.0,5.0,5.0,4.0,5.0,5.0,4.0,5.0,5.0,4.0,4.0,5.0,5.0,4.0,5.0,5.0,1.0,1.0,5.0,4.0,5.0,5.0,5.0,5.0,4.0,4.0,,6.0,5.0,6.0,5.0,6.0,5.0,My dog reese,2.4,3.0,3.666667,5.0,4.0,5.0,6.0,4.6
86031,2307,2020-04-01 21:54:42,EN,36,Female,"College degree, bachelor, master",College degree,Full time employed,United States,no,Colorado,Single,0.0,Yes,Life carries on with minor changes,0.0,0.0,Program A,,No,2.0,3.0,4.0,3.0,1.0,2.0,3.0,3.0,3.0,2.0,5.0,4.0,5.0,4.0,7.0,5.0,6.0,8.0,8.0,5.0,3.0,1.0,6.0,6.0,6.0,6.0,0.0,4.0,6.0,6.0,6.0,1.0,1.0,5.0,4.0,3.0,5.0,2.0,4.0,1.0,5.0,5.0,1.0,5.0,5.0,5.0,4.0,5.0,,,,,,,,,,,,,,,,,,,,,,,,,,,,,,,,,,,,,,,,,,,,,,,,,,,,,,,,,,,,3.0,4.666667,4.333333,3.333333,3.666667,5.333333,4.333333,
86049,589,2020-03-31 21:21:48,EN,56,Male,PhD/Doctorate,College degree,Full time employed,United States,no,MI,Divorced/widowed,2.0,Yes,Isolated,1.0,0.0,Program A,,No,1.0,1.0,2.0,5.0,4.0,1.0,4.0,5.0,1.0,1.0,3.0,2.0,3.0,7.0,9.0,4.0,5.0,7.0,3.0,6.0,2.0,6.0,5.0,5.0,5.0,5.0,0.0,5.0,5.0,6.0,3.0,3.0,2.0,5.0,2.0,5.0,5.0,3.0,4.0,4.0,5.0,3.0,2.0,5.0,5.0,5.0,4.0,5.0,1.0,2.0,5.0,2.0,4.0,3.0,1.0,5.0,1.0,5.0,2.0,6.0,6.0,2.0,2.0,3.0,2.0,3.0,4.0,3.0,4.0,2.0,4.0,1.0,,5.0,5.0,5.0,5.0,5.0,5.0,5.0,5.0,5.0,5.0,4.0,1.0,5.0,1.0,5.0,6.0,1.0,1.0,1.0,4.0,2.0,5.0,4.0,5.0,1.0,4.0,,5.0,5.0,5.0,5.0,5.0,3.0,,1.3,2.666667,3.0,3.666667,4.0,5.0,4.333333,5.0
86053,2271,2020-03-31 21:49:31,EN,67,Female,"Some College, short continuing education or equivalent",Up to 12 years of school,Retired,United States,no,"State of Indiana, United States of America",Married/cohabiting,0.0,Yes,Life carries on with minor changes,1.0,0.0,,Program D,Yes,2.0,2.0,3.0,5.0,4.0,1.0,5.0,5.0,2.0,1.0,1.0,1.0,2.0,7.0,9.0,6.0,8.0,10.0,6.0,9.0,5.0,6.0,6.0,6.0,6.0,6.0,4.0,6.0,6.0,5.0,4.0,3.0,1.0,5.0,2.0,6.0,5.0,5.0,2.0,4.0,6.0,3.0,1.0,5.0,6.0,5.0,3.0,6.0,6.0,2.0,4.0,1.0,3.0,4.0,1.0,1.0,1.0,6.0,3.0,6.0,6.0,3.0,4.0,3.0,1.0,1.0,3.0,2.0,5.0,2.0,4.0,1.0,,6.0,6.0,6.0,6.0,6.0,6.0,6.0,6.0,6.0,6.0,3.0,6.0,6.0,3.0,5.0,4.0,1.0,4.0,5.0,5.0,6.0,5.0,4.0,5.0,2.0,4.0,,4.0,6.0,4.0,4.0,4.0,5.0,I have chronic leukemia. My immune system is compromised. I keep myself more isolate from most people. The few times i have been out in public I wear a mask.I am concerned for my 17 year old granddaughter  who has a history of asthma. I try to not let fear rule my everyday life. I have a background in pharmacology.I have a great concern about a president who is too self focused and is reluctant to listen to the professionals. I believe in caring for others and not being self absorbed.,1.6,1.333333,2.666667,5.0,4.333333,5.666667,5.0,6.0
86075,937,2020-04-01 21:30:29,S-CO,33,Male,"College degree, bachelor, master",College degree,Full time employed,United States,no,,Married/cohabiting,4.0,No,Life carries on with minor changes,1.0,2.0,,Program D,No,3.0,2.0,2.0,5.0,4.0,2.0,5.0,3.0,2.0,2.0,2.0,1.0,2.0,3.0,7.0,0.0,0.0,0.0,0.0,0.0,0.0,6.0,6.0,6.0,6.0,6.0,2.0,6.0,6.0,6.0,6.0,1.0,6.0,4.0,4.0,6.0,4.0,6.0,3.0,5.0,6.0,6.0,5.0,4.0,6.0,6.0,1.0,6.0,6.0,6.0,6.0,6.0,5.0,6.0,6.0,99.0,6.0,6.0,6.0,6.0,6.0,6.0,6.0,6.0,2.0,5.0,6.0,5.0,6.0,6.0,6.0,6.0,,5.0,5.0,5.0,5.0,5.0,5.0,5.0,5.0,5.0,5.0,2.0,5.0,5.0,4.0,5.0,2.0,5.0,3.0,4.0,1.0,4.0,4.0,5.0,5.0,4.0,2.0,,2.0,5.0,6.0,5.0,6.0,1.0,,2.0,1.666667,3.0,4.666667,5.666667,4.0,6.0,5.0
86096,1030,2020-03-31 21:19:31,EN,58,Female,"Some College, short continuing education or equivalent",Some College or equivalent,Retired,United States,no,Pennsylvania,Divorced/widowed,1.0,No,Life carries on with minor changes,3.0,2.0,,Program D,No,2.0,2.0,3.0,2.0,3.0,3.0,4.0,4.0,2.0,2.0,3.0,2.0,2.0,7.0,8.0,8.0,7.0,8.0,8.0,2.0,9.0,5.0,5.0,5.0,5.0,6.0,9.0,5.0,5.0,5.0,4.0,5.0,4.0,3.0,4.0,5.0,4.0,4.0,4.0,4.0,6.0,5.0,1.0,5.0,6.0,5.0,2.0,5.0,4.0,99.0,5.0,99.0,3.0,3.0,3.0,5.0,5.0,5.0,5.0,4.0,5.0,5.0,99.0,5.0,5.0,5.0,4.0,6.0,5.0,2.0,5.0,5.0,"When will it arrive here, and will I die.",5.0,5.0,5.0,5.0,5.0,5.0,5.0,5.0,5.0,5.0,5.0,5.0,5.0,5.0,4.0,5.0,5.0,5.0,5.0,5.0,5.0,5.0,5.0,5.0,5.0,5.0,,5.0,5.0,5.0,5.0,5.0,5.0,I miss going out and shopping whenever and where I want to. Visiting people...,2.5,2.333333,3.0,3.666667,5.0,5.666667,5.0,5.0
86108,858,2020-03-31 21:11:37,EN,39,Female,PhD/Doctorate,College degree,Full time employed,United States,no,Mi,Married/cohabiting,2.0,Yes,Life carries on with minor changes,,,,Program D,Not sure,3.0,3.0,5.0,5.0,3.0,4.0,4.0,3.0,4.0,5.0,3.0,1.0,4.0,6.0,9.0,2.0,6.0,3.0,3.0,6.0,0.0,6.0,5.0,6.0,6.0,6.0,0.0,6.0,5.0,5.0,1.0,3.0,4.0,2.0,1.0,6.0,6.0,6.0,1.0,4.0,6.0,6.0,1.0,6.0,6.0,5.0,1.0,6.0,5.0,5.0,6.0,2.0,1.0,5.0,3.0,1.0,1.0,6.0,4.0,2.0,5.0,6.0,5.0,3.0,1.0,2.0,5.0,2.0,2.0,1.0,5.0,1.0,"Overall high level of uncertainty regarding so many factors all at once. I can tolerate a fair amount of ambiguity, but this ongoing ambiguity paired with relative personal inactivity to impact the overall situation is distressing.",6.0,6.0,6.0,6.0,6.0,6.0,6.0,6.0,6.0,6.0,3.0,5.0,6.0,5.0,2.0,2.0,5.0,5.0,5.0,6.0,3.0,4.0,5.0,4.0,3.0,3.0,,6.0,5.0,5.0,2.0,2.0,1.0,Overall stress of attempting to work full time and homeschool my two young children,3.3,2.666667,1.333333,6.0,5.333333,6.0,5.666667,6.0
86128,906,2020-03-31 21:07:38,ZH-T,28,Male,PhD/Doctorate,Some College or equivalent,Student,United States,yes,Massachusetts,Single,0.0,Yes,Life carries on with minor changes,2.0,0.0,,Program C,No,4.0,2.0,5.0,4.0,2.0,1.0,2.0,1.0,3.0,2.0,3.0,2.0,3.0,4.0,7.0,6.0,7.0,6.0,2.0,,4.0,6.0,6.0,5.0,5.0,5.0,2.0,6.0,6.0,6.0,2.0,3.0,5.0,6.0,6.0,5.0,4.0,4.0,4.0,4.0,2.0,5.0,2.0,5.0,3.0,6.0,3.0,5.0,99.0,99.0,99.0,5.0,5.0,1.0,1.0,6.0,99.0,6.0,4.0,6.0,99.0,6.0,1.0,1.0,2.0,4.0,4.0,4.0,6.0,2.0,5.0,2.0,,4.0,6.0,4.0,4.0,5.0,4.0,6.0,5.0,4.0,5.0,2.0,4.0,5.0,5.0,5.0,2.0,5.0,5.0,5.0,4.0,5.0,5.0,5.0,5.0,5.0,2.0,,6.0,4.0,5.0,5.0,6.0,2.0,,3.2,2.666667,4.666667,3.666667,3.666667,4.333333,5.0,4.7
86138,725,2020-03-31 21:02:43,PL,31,Male,PhD/Doctorate,College degree,Full time employed,United States,yes,,Married/cohabiting,1.0,No,Isolated,1.0,1.0,Program B,,No,2.0,1.0,3.0,5.0,5.0,3.0,5.0,5.0,1.0,1.0,2.0,1.0,3.0,2.0,5.0,3.0,6.0,6.0,6.0,6.0,5.0,2.0,2.0,4.0,5.0,5.0,6.0,6.0,5.0,6.0,2.0,4.0,4.0,1.0,2.0,4.0,4.0,4.0,4.0,5.0,4.0,5.0,3.0,5.0,5.0,6.0,2.0,5.0,1.0,2.0,2.0,2.0,3.0,3.0,5.0,1.0,2.0,5.0,1.0,1.0,1.0,3.0,2.0,1.0,1.0,1.0,6.0,2.0,3.0,1.0,4.0,99.0,,6.0,5.0,5.0,6.0,5.0,6.0,6.0,6.0,6.0,6.0,4.0,5.0,5.0,4.0,5.0,3.0,4.0,4.0,4.0,5.0,3.0,4.0,5.0,4.0,4.0,3.0,,4.0,4.0,4.0,2.0,1.0,1.0,,1.5,2.0,2.0,3.666667,4.666667,4.666667,5.333333,5.7
86152,753,2020-03-31 20:58:59,EN,23,Female,"College degree, bachelor, master",College degree,Student,United States,yes,Pennsylvania,Single,0.0,No,Isolated,1.0,0.0,,Program D,Yes,3.0,3.0,4.0,4.0,3.0,3.0,4.0,3.0,3.0,3.0,2.0,1.0,2.0,6.0,8.0,3.0,7.0,7.0,2.0,4.0,0.0,4.0,6.0,4.0,4.0,3.0,0.0,6.0,5.0,6.0,2.0,5.0,3.0,3.0,3.0,5.0,3.0,2.0,4.0,4.0,6.0,4.0,4.0,3.0,3.0,4.0,1.0,5.0,5.0,5.0,99.0,6.0,4.0,2.0,1.0,99.0,99.0,4.0,4.0,4.0,4.0,4.0,6.0,2.0,1.0,3.0,3.0,99.0,3.0,4.0,2.0,2.0,,6.0,5.0,4.0,5.0,6.0,6.0,5.0,6.0,5.0,6.0,1.0,5.0,5.0,4.0,3.0,3.0,5.0,2.0,5.0,3.0,3.0,4.0,6.0,4.0,1.0,4.0,,3.0,4.0,5.0,5.0,2.0,4.0,,2.9,1.666667,2.666667,2.666667,4.666667,3.0,5.0,5.4
86184,1087,2020-03-31 20:58:11,EN,22,Female,"Some College, short continuing education or equivalent",College degree,Part time employed,United States,no,Pennsylvania,Single,0.0,Yes,Life carries on with minor changes,3.0,0.0,,Program D,No,4.0,5.0,5.0,2.0,1.0,5.0,2.0,1.0,5.0,5.0,3.0,3.0,4.0,2.0,9.0,0.0,1.0,5.0,0.0,3.0,0.0,5.0,5.0,5.0,6.0,6.0,2.0,5.0,6.0,5.0,2.0,1.0,1.0,4.0,6.0,3.0,4.0,2.0,5.0,3.0,5.0,3.0,2.0,5.0,5.0,3.0,5.0,5.0,5.0,5.0,99.0,6.0,4.0,4.0,1.0,2.0,99.0,5.0,4.0,6.0,5.0,4.0,99.0,5.0,4.0,4.0,4.0,4.0,5.0,3.0,6.0,2.0,,5.0,4.0,5.0,5.0,5.0,5.0,4.0,5.0,5.0,5.0,4.0,3.0,5.0,2.0,4.0,3.0,4.0,4.0,5.0,3.0,3.0,4.0,1.0,4.0,1.0,3.0,,4.0,4.0,4.0,4.0,4.0,1.0,,4.7,3.333333,4.666667,2.666667,3.666667,5.0,3.333333,4.8
86214,212,2020-04-01 20:37:24,PL,37,Female,"Some College, short continuing education or equivalent",Up to 12 years of school,Self-employed,United States,yes,Podkarpackie,Single,1.0,Not sure,Isolated,2.0,1.0,,Program D,,,,,,,,,,,,,,,,,,,,,,,,,,,,,,,,,,,,,,,,,,,,,,,,,,,,,,,,,,,,,,,,,,,,,,,,,,,,,,,,,,,,,,,,,,,,,,,,,,,,,,,,,,,,,,,,,,,,
86219,777,2020-03-31 20:45:02,EN,48,Female,"College degree, bachelor, master",College degree,Self-employed,United States,no,Florida,Divorced/widowed,2.0,Yes,Life carries on with minor changes,0.0,0.0,Program A,,No,1.0,1.0,4.0,4.0,2.0,1.0,4.0,3.0,3.0,2.0,2.0,3.0,3.0,5.0,8.0,7.0,6.0,9.0,5.0,7.0,4.0,5.0,6.0,6.0,6.0,6.0,2.0,5.0,4.0,4.0,3.0,4.0,4.0,4.0,2.0,6.0,6.0,6.0,3.0,4.0,5.0,4.0,4.0,5.0,6.0,4.0,1.0,5.0,6.0,99.0,6.0,5.0,2.0,5.0,99.0,99.0,99.0,6.0,5.0,6.0,6.0,99.0,4.0,4.0,3.0,5.0,4.0,2.0,1.0,1.0,6.0,5.0,I don't know if I will be able to rebuild my business,5.0,5.0,4.0,5.0,6.0,6.0,6.0,5.0,6.0,6.0,1.0,4.0,5.0,1.0,1.0,6.0,2.0,1.0,4.0,4.0,4.0,4.0,1.0,4.0,1.0,4.0,,5.0,4.0,5.0,2.0,5.0,4.0,,2.3,2.666667,2.333333,5.333333,4.333333,4.666667,5.0,5.4
86236,1946,2020-03-31 21:00:11,EN,65,Female,"College degree, bachelor, master",Up to 12 years of school,Retired,United States,no,VA,Married/cohabiting,0.0,No,Life carries on with minor changes,1.0,0.0,,,,3.0,3.0,3.0,3.0,3.0,2.0,2.0,3.0,2.0,1.0,1.0,3.0,1.0,7.0,8.0,5.0,6.0,5.0,6.0,6.0,5.0,6.0,6.0,6.0,6.0,5.0,3.0,5.0,5.0,5.0,1.0,4.0,4.0,5.0,5.0,2.0,4.0,5.0,4.0,5.0,5.0,4.0,1.0,4.0,6.0,5.0,,5.0,99.0,99.0,99.0,99.0,6.0,5.0,99.0,3.0,99.0,5.0,99.0,4.0,6.0,6.0,99.0,4.0,2.0,5.0,99.0,3.0,2.0,2.0,6.0,6.0,,6.0,5.0,5.0,6.0,5.0,5.0,6.0,6.0,6.0,6.0,2.0,5.0,5.0,5.0,6.0,5.0,2.0,1.0,5.0,5.0,5.0,4.0,5.0,5.0,5.0,4.0,,3.0,3.0,2.0,2.0,4.0,4.0,I think Donald Trump is doing an awful job conveying information to the US. I wish he would shut up.,2.7,1.666667,5.0,4.0,4.666667,5.333333,5.0,5.6
86250,355,2020-04-01 20:29:53,EN,34,Male,PhD/Doctorate,Up to 12 years of school,Full time employed,United States,yes,Los Angeles,Divorced/widowed,1.0,No,Life carries on with minor changes,,,,Program D,No,,,,,,,,,,,,3.0,,,,,,,,,,,,,,,,,,,,,,,,,,,,,,,,,,,,,,,,,,,,,,,,,,,,,,,,,,,,,,,,,,,,,,,,,,,,,,,,,,,,,,,,,,,,,,,,,3.0,,,,,,
86254,427,2020-04-01 20:30:46,EN,53,Female,Up to 12 years of school,College degree,Full time employed,United States,no,Delaware,Divorced/widowed,0.0,Yes,Life carries on with minor changes,3.0,0.0,Program B,,Not sure,3.0,,5.0,1.0,3.0,3.0,2.0,3.0,3.0,4.0,3.0,1.0,1.0,0.0,,5.0,10.0,9.0,5.0,10.0,,5.0,,2.0,,2.0,0.0,5.0,1.0,6.0,5.0,,3.0,2.0,2.0,4.0,2.0,,,5.0,5.0,,2.0,,1.0,6.0,,4.0,,,,,,,,,,,,,,,,,,,,,,,,,,,,,,,,,,,,,,,,,,,,,,,,,,,,,,,,,,,,3.666667,1.666667,2.333333,2.0,5.0,3.0,5.0,
86320,940,2020-04-01 20:23:01,EN,29,Female,Up to 12 years of school,Up to 12 years of school,Full time employed,United States,no,Kentucky,Married/cohabiting,2.0,Yes,Life carries on with minor changes,1.0,2.0,,,,,,,,,,,,,,,,,,,,,,,,,,,,,,,,,,,,,,,,,,,,,,,,,,,,,,,,,,,,,,,,,,,,,,,,,,,,,,,,,,,,,,,,,,,,,,,,,,,,,,,,,,,,,,,,,,,,,,
86340,1404,2020-03-31 20:27:35,EN,69,Male,"Some College, short continuing education or equivalent",Up to 6 years of school,Full time employed,United States,no,New york,Married/cohabiting,0.0,Yes,Life carries on with minor changes,1.0,,Program A,,Yes,2.0,3.0,3.0,4.0,2.0,2.0,4.0,4.0,3.0,1.0,2.0,3.0,3.0,7.0,9.0,8.0,10.0,10.0,10.0,10.0,10.0,5.0,5.0,5.0,5.0,4.0,8.0,6.0,5.0,6.0,2.0,5.0,5.0,4.0,2.0,5.0,4.0,5.0,2.0,4.0,5.0,4.0,3.0,5.0,5.0,4.0,2.0,5.0,5.0,5.0,99.0,99.0,4.0,99.0,99.0,99.0,99.0,4.0,99.0,6.0,6.0,5.0,99.0,99.0,4.0,99.0,4.0,5.0,5.0,2.0,5.0,99.0,,6.0,5.0,5.0,6.0,6.0,5.0,6.0,6.0,5.0,6.0,5.0,5.0,5.0,2.0,5.0,4.0,2.0,2.0,6.0,4.0,5.0,6.0,2.0,4.0,2.0,6.0,,6.0,5.0,1.0,4.0,6.0,2.0,,2.4,2.666667,2.666667,4.666667,4.333333,4.666667,4.666667,5.6
86355,444,2020-04-01 20:08:05,EN,29,Male,"College degree, bachelor, master",Up to 12 years of school,Not employed,United States,no,California,Single,0.0,Yes,Life carries on with minor changes,,,,Program C,No,3.0,2.0,4.0,3.0,3.0,2.0,4.0,3.0,3.0,2.0,5.0,4.0,4.0,6.0,7.0,3.0,4.0,8.0,2.0,9.0,2.0,5.0,5.0,5.0,6.0,6.0,0.0,5.0,5.0,5.0,5.0,4.0,5.0,5.0,6.0,3.0,5.0,5.0,5.0,5.0,5.0,6.0,1.0,5.0,6.0,4.0,3.0,5.0,,,,,,,,,,,,,,,,,,,,,,,,,,,,,,,,,,,,,,,,,,,,,,,,,,,,,,,,,,,,2.7,4.333333,5.0,4.0,5.333333,5.666667,4.333333,
86364,807,2020-03-31 20:12:55,ZH-T,36,Male,PhD/Doctorate,College degree,Full time employed,United States,yes,Texas,Married/cohabiting,1.0,No,Life carries on with minor changes,,,,Program D,,1.0,1.0,1.0,5.0,4.0,1.0,5.0,4.0,1.0,1.0,1.0,1.0,1.0,7.0,9.0,6.0,7.0,6.0,6.0,2.0,8.0,3.0,3.0,3.0,4.0,4.0,5.0,6.0,5.0,5.0,3.0,3.0,5.0,2.0,3.0,6.0,5.0,5.0,3.0,4.0,3.0,3.0,4.0,6.0,4.0,3.0,3.0,6.0,3.0,2.0,3.0,3.0,4.0,3.0,1.0,2.0,3.0,6.0,3.0,3.0,2.0,2.0,2.0,2.0,1.0,2.0,3.0,3.0,4.0,2.0,3.0,3.0,,5.0,5.0,4.0,6.0,6.0,5.0,5.0,6.0,4.0,6.0,4.0,3.0,3.0,3.0,4.0,2.0,3.0,3.0,3.0,4.0,3.0,4.0,4.0,4.0,1.0,4.0,,5.0,5.0,4.0,3.0,5.0,1.0,,1.2,1.0,2.0,4.666667,3.333333,4.333333,4.333333,5.2
86365,680,2020-03-31 20:10:24,FR,23,Male,"College degree, bachelor, master",College degree,Full time employed,United States,yes,California,Single,0.0,Yes,Isolated,4.0,0.0,Program A,,Not sure,1.0,1.0,2.0,1.0,5.0,1.0,5.0,3.0,1.0,1.0,1.0,1.0,1.0,6.0,9.0,6.0,6.0,7.0,4.0,7.0,2.0,5.0,6.0,6.0,6.0,6.0,0.0,5.0,2.0,6.0,1.0,3.0,1.0,2.0,1.0,6.0,6.0,5.0,4.0,6.0,3.0,6.0,6.0,4.0,5.0,1.0,5.0,3.0,99.0,2.0,99.0,4.0,6.0,6.0,99.0,6.0,99.0,5.0,2.0,5.0,6.0,5.0,1.0,1.0,99.0,1.0,5.0,2.0,4.0,3.0,6.0,1.0,,6.0,5.0,4.0,5.0,5.0,6.0,5.0,5.0,5.0,6.0,4.0,6.0,6.0,2.0,6.0,4.0,6.0,6.0,6.0,4.0,1.0,5.0,4.0,5.0,1.0,5.0,,2.0,6.0,6.0,6.0,4.0,5.0,,1.7,1.0,1.333333,4.666667,5.0,3.333333,2.0,5.2
86402,1063,2020-03-31 20:06:34,EN,45,Female,"College degree, bachelor, master",College degree,Full time employed,United States,no,Il,Married/cohabiting,3.0,Yes,Isolated,1.0,2.0,,Program D,No,3.0,3.0,4.0,4.0,3.0,2.0,3.0,2.0,4.0,3.0,2.0,2.0,4.0,4.0,7.0,0.0,4.0,6.0,7.0,9.0,0.0,5.0,5.0,5.0,6.0,6.0,0.0,5.0,5.0,5.0,2.0,2.0,2.0,5.0,3.0,5.0,3.0,2.0,5.0,4.0,6.0,3.0,1.0,4.0,5.0,3.0,2.0,6.0,3.0,2.0,4.0,4.0,3.0,2.0,1.0,2.0,3.0,6.0,6.0,6.0,4.0,5.0,2.0,2.0,3.0,3.0,2.0,5.0,2.0,2.0,4.0,2.0,,6.0,4.0,5.0,5.0,6.0,4.0,6.0,5.0,5.0,6.0,2.0,1.0,3.0,2.0,2.0,5.0,2.0,4.0,4.0,4.0,4.0,4.0,2.0,4.0,1.0,4.0,,1.0,5.0,6.0,4.0,3.0,4.0,"I am more fearful of the coming election than I would normally be. I fear that the current administration will take action to diminish access to the polls to affect the outcome. Should 45 lose the election, I fear there may not be a smooth and peaceful transition of power.",3.1,2.666667,3.333333,2.333333,4.333333,5.0,4.666667,5.2
86403,1013,2020-03-31 20:05:43,EN,44,Female,"College degree, bachelor, master",Some College or equivalent,Full time employed,United States,yes,Florida,Divorced/widowed,1.0,Yes,Life carries on with minor changes,0.0,0.0,Program A,,Not sure,3.0,3.0,3.0,4.0,4.0,2.0,3.0,3.0,3.0,2.0,4.0,3.0,4.0,4.0,2.0,7.0,8.0,8.0,7.0,6.0,8.0,4.0,4.0,4.0,5.0,6.0,5.0,5.0,6.0,6.0,2.0,5.0,2.0,3.0,2.0,6.0,6.0,6.0,5.0,4.0,6.0,2.0,1.0,5.0,6.0,5.0,1.0,5.0,2.0,2.0,4.0,2.0,5.0,5.0,99.0,99.0,99.0,6.0,2.0,6.0,4.0,5.0,1.0,99.0,2.0,5.0,4.0,5.0,5.0,2.0,5.0,5.0,,5.0,5.0,5.0,6.0,6.0,6.0,6.0,6.0,5.0,5.0,5.0,6.0,6.0,5.0,5.0,5.0,3.0,2.0,5.0,6.0,5.0,5.0,5.0,6.0,6.0,5.0,,4.0,2.0,3.0,5.0,5.0,4.0,,2.6,3.666667,2.0,4.666667,4.0,5.666667,5.333333,5.5
86415,126,2020-04-01 19:50:12,EN,60,Male,PhD/Doctorate,Some College or equivalent,Full time employed,United States,no,Ny,Single,0.0,Yes,Isolated,0.0,,Program A,,,,,,,,,,,,,,,,,,,,,,,,,,,,,,,,,,,,,,,,,,,,,,,,,,,,,,,,,,,,,,,,,,,,,,,,,,,,,,,,,,,,,,,,,,,,,,,,,,,,,,,,,,,,,,,,,,,,,
86427,1016,2020-04-01 20:01:17,EN,53,Female,"College degree, bachelor, master",Some College or equivalent,Full time employed,United States,no,Georgia,Married/cohabiting,3.0,Yes,Isolated,2.0,3.0,,Program C,No,3.0,4.0,4.0,3.0,3.0,4.0,3.0,2.0,3.0,3.0,2.0,2.0,2.0,7.0,9.0,4.0,9.0,9.0,7.0,4.0,2.0,5.0,6.0,5.0,5.0,5.0,1.0,5.0,5.0,5.0,1.0,3.0,2.0,3.0,4.0,4.0,2.0,1.0,5.0,3.0,4.0,2.0,1.0,4.0,5.0,5.0,4.0,5.0,2.0,2.0,5.0,2.0,2.0,1.0,1.0,2.0,99.0,5.0,5.0,6.0,6.0,5.0,2.0,2.0,2.0,2.0,2.0,2.0,3.0,2.0,3.0,2.0,,,,,,,,,,,,,,,,,,,,,,,,,,,,,,,,,,,,3.4,2.0,3.333333,1.666667,3.0,5.0,4.333333,
86435,1297,2020-03-31 20:04:53,EN,56,Female,"Some College, short continuing education or equivalent",Up to 9 years of school,Retired,United States,no,Pennsylvania,Divorced/widowed,0.0,Yes,Isolated,0.0,0.0,,Program C,No,4.0,3.0,4.0,3.0,1.0,2.0,2.0,2.0,4.0,3.0,5.0,4.0,5.0,3.0,6.0,5.0,5.0,5.0,5.0,5.0,3.0,2.0,,5.0,5.0,5.0,2.0,5.0,3.0,4.0,2.0,2.0,2.0,4.0,2.0,2.0,4.0,3.0,2.0,2.0,3.0,2.0,3.0,4.0,4.0,3.0,5.0,3.0,2.0,99.0,,99.0,4.0,6.0,99.0,,99.0,5.0,2.0,5.0,5.0,99.0,99.0,4.0,2.0,6.0,4.0,99.0,3.0,2.0,4.0,5.0,,5.0,4.0,3.0,4.0,4.0,2.0,4.0,5.0,2.0,5.0,4.0,4.0,5.0,,1.0,4.0,1.0,,1.0,1.0,2.0,4.0,,4.0,,3.0,,4.0,4.0,4.0,2.0,4.0,2.0,,3.6,4.666667,3.666667,4.0,2.333333,4.0,2.666667,3.8
86437,55351,2020-04-02 11:05:52,EN,51,Female,"Some College, short continuing education or equivalent",Up to 9 years of school,Self-employed,United States,yes,Illinois,Married/cohabiting,0.0,No,Life carries on as usual,1.0,0.0,Program A,,Not sure,3.0,3.0,3.0,4.0,4.0,1.0,5.0,3.0,2.0,3.0,2.0,1.0,4.0,8.0,7.0,5.0,9.0,7.0,8.0,8.0,8.0,5.0,5.0,5.0,5.0,5.0,4.0,6.0,5.0,4.0,6.0,5.0,4.0,4.0,3.0,6.0,5.0,5.0,1.0,5.0,5.0,3.0,3.0,5.0,5.0,5.0,3.0,5.0,,,,,,,,,,,,,,,,,,,,,,,,,,,,,,,,,,,,,,,,,,,,,,,,,,,,,,,,,,,,2.3,2.333333,2.666667,5.333333,4.333333,4.666667,4.666667,
86484,1631,2020-03-31 20:00:50,EN,61,Male,"Some College, short continuing education or equivalent",Some College or equivalent,Full time employed,United States,no,Virginia,Divorced/widowed,1.0,Yes,Life carries on with minor changes,2.0,0.0,,Program D,No,1.0,4.0,4.0,3.0,2.0,3.0,3.0,1.0,1.0,2.0,2.0,1.0,4.0,7.0,9.0,0.0,6.0,5.0,0.0,7.0,0.0,5.0,5.0,5.0,6.0,5.0,0.0,5.0,5.0,5.0,1.0,4.0,1.0,3.0,1.0,5.0,4.0,2.0,4.0,4.0,4.0,2.0,1.0,5.0,5.0,5.0,2.0,5.0,6.0,6.0,99.0,6.0,4.0,4.0,1.0,1.0,99.0,4.0,2.0,6.0,6.0,4.0,6.0,6.0,2.0,2.0,2.0,3.0,3.0,2.0,6.0,1.0,,5.0,5.0,5.0,6.0,4.0,4.0,3.0,2.0,4.0,5.0,3.0,1.0,5.0,2.0,3.0,4.0,1.0,1.0,4.0,4.0,2.0,3.0,1.0,5.0,2.0,2.0,,1.0,4.0,2.0,2.0,4.0,4.0,,3.0,2.333333,2.0,3.0,3.333333,5.333333,5.0,4.3
86493,143,2020-04-01 19:33:54,EN,38,Female,PhD/Doctorate,Up to 12 years of school,Full time employed,United States,yes,,Single,0.0,Yes,Life carries on with minor changes,,,Program A,,,,,,,,,,,,,,,,,,,,,,,,,,,,,,,,,,,,,,,,,,,,,,,,,,,,,,,,,,,,,,,,,,,,,,,,,,,,,,,,,,,,,,,,,,,,,,,,,,,,,,,,,,,,,,,,,,,,,
86566,1139,2020-03-31 19:37:09,EN,33,Female,PhD/Doctorate,College degree,Full time employed,United States,no,North Dakota,Single,0.0,Yes,Life carries on with minor changes,0.0,0.0,Program A,,No,3.0,3.0,5.0,4.0,2.0,2.0,3.0,2.0,4.0,2.0,5.0,5.0,5.0,8.0,9.0,4.0,7.0,7.0,6.0,6.0,6.0,2.0,6.0,5.0,5.0,5.0,3.0,6.0,5.0,5.0,6.0,5.0,3.0,3.0,2.0,6.0,5.0,3.0,5.0,4.0,6.0,2.0,1.0,4.0,5.0,5.0,2.0,5.0,1.0,2.0,99.0,99.0,2.0,5.0,6.0,99.0,99.0,4.0,2.0,6.0,6.0,5.0,99.0,5.0,6.0,6.0,2.0,2.0,6.0,1.0,5.0,1.0,worry about co-workers' response/risk to them/mental health (working in healthcare)| worrying that our healthcare facility is taking the needed steps to be prepared to care for patients admitted with coronavirus and to protect those who care for them,5.0,5.0,5.0,5.0,5.0,5.0,5.0,6.0,5.0,6.0,4.0,6.0,6.0,6.0,5.0,4.0,1.0,1.0,2.0,6.0,5.0,4.0,6.0,4.0,6.0,5.0,,2.0,2.0,2.0,2.0,4.0,5.0,"as a worker in healthcare, knowing whether enough PPE is available for those who care for patients and whether enough resources are available to care for patients is concerning| a sense of ""being in this together"" with everyone (this epidemic does not discriminate - money, degree of education, race/ethnicity, etc.) is helpful| seeing examples of how people reach out to others with compassion and love is helpful| a sense of calm and organization from our local government's/state response to the pandemic is helpful (information is being managed well in our situation)| having this pandemic be a defining event in evaluating what in my life is important and what is not is helpful",3.2,5.0,2.0,3.333333,4.0,5.0,5.0,5.2
86579,475,2020-04-01 19:25:52,EN,34,Female,"College degree, bachelor, master",College degree,Part time employed,United States,no,VA,Married/cohabiting,1.0,Yes,Isolated,1.0,1.0,Program A,,No,3.0,2.0,4.0,5.0,3.0,1.0,4.0,3.0,1.0,3.0,1.0,1.0,1.0,8.0,9.0,2.0,8.0,2.0,4.0,5.0,2.0,6.0,6.0,6.0,6.0,6.0,4.0,5.0,5.0,5.0,2.0,5.0,2.0,2.0,2.0,6.0,4.0,4.0,2.0,2.0,4.0,2.0,1.0,6.0,6.0,4.0,2.0,6.0,2.0,6.0,6.0,1.0,1.0,2.0,1.0,6.0,6.0,6.0,6.0,6.0,6.0,6.0,1.0,1.0,5.0,1.0,6.0,6.0,3.0,2.0,6.0,1.0,,,,,,,,,,,,,,,,,,,,,,,,,,,,,,,,,,,,2.3,1.0,1.666667,4.333333,2.666667,6.0,5.0,
86641,601,2020-04-01 19:17:55,FR,22,Male,"College degree, bachelor, master",College degree,Full time employed,United States,yes,,Single,0.0,No,Isolated,1.0,0.0,,Program D,No,1.0,1.0,1.0,5.0,3.0,1.0,5.0,5.0,1.0,1.0,2.0,1.0,2.0,6.0,8.0,6.0,6.0,6.0,1.0,9.0,3.0,2.0,4.0,1.0,5.0,5.0,0.0,,,,,,,,,,,,,,,,,,,,,,,,,,,,,,,,,,,,,,,,,,,,,,,,,,,,,,,,,,,,,,,,,,,,,,,,,,,,,,,,,1.2,1.666667,,,,,,
86645,78801,2020-04-01 16:56:36,EN,30,Male,"College degree, bachelor, master",College degree,Self-employed,United States,yes,"Boston,Massachusetts, USA",Single,0.0,No,Life carries on with minor changes,0.0,0.0,Program A,,No,3.0,1.0,3.0,5.0,5.0,1.0,3.0,5.0,4.0,1.0,3.0,3.0,3.0,5.0,8.0,5.0,9.0,9.0,8.0,8.0,8.0,5.0,6.0,5.0,5.0,6.0,7.0,6.0,6.0,6.0,3.0,5.0,1.0,4.0,4.0,4.0,6.0,6.0,1.0,6.0,5.0,5.0,1.0,6.0,6.0,6.0,1.0,6.0,4.0,5.0,1.0,99.0,2.0,4.0,1.0,1.0,1.0,99.0,1.0,5.0,1.0,5.0,2.0,5.0,3.0,4.0,5.0,5.0,4.0,3.0,4.0,1.0,,6.0,6.0,6.0,6.0,6.0,6.0,6.0,6.0,6.0,6.0,6.0,1.0,6.0,1.0,6.0,3.0,1.0,1.0,1.0,6.0,6.0,6.0,6.0,6.0,1.0,6.0,,6.0,6.0,6.0,6.0,5.0,5.0,,1.9,3.0,3.666667,6.0,5.333333,6.0,6.0,6.0
86656,670,2020-03-31 19:12:25,EN,27,Male,PhD/Doctorate,Some College or equivalent,Full time employed,United States,yes,New york,Single,0.0,No,Life carries on with minor changes,1.0,0.0,,Program C,No,1.0,1.0,1.0,5.0,3.0,1.0,5.0,5.0,1.0,1.0,1.0,1.0,1.0,2.0,7.0,0.0,6.0,3.0,0.0,9.0,0.0,5.0,5.0,5.0,4.0,3.0,0.0,5.0,6.0,6.0,1.0,2.0,6.0,4.0,4.0,5.0,3.0,3.0,4.0,5.0,2.0,6.0,2.0,2.0,5.0,5.0,2.0,6.0,1.0,1.0,99.0,2.0,3.0,4.0,99.0,1.0,99.0,5.0,4.0,5.0,4.0,5.0,1.0,1.0,1.0,1.0,1.0,1.0,3.0,2.0,2.0,3.0,,4.0,5.0,4.0,5.0,5.0,4.0,4.0,5.0,6.0,5.0,3.0,5.0,5.0,2.0,1.0,1.0,6.0,6.0,4.0,2.0,2.0,2.0,4.0,5.0,1.0,5.0,,2.0,5.0,2.0,2.0,2.0,2.0,,1.2,1.0,3.333333,3.0,4.333333,4.0,5.333333,4.7
86681,900,2020-03-31 19:11:45,FR,37,Male,PhD/Doctorate,College degree,Full time employed,United States,yes,francais vivant aux etats unis,Married/cohabiting,2.0,No,Isolated,1.0,2.0,Program A,,No,1.0,2.0,2.0,5.0,2.0,1.0,3.0,3.0,1.0,1.0,2.0,1.0,2.0,7.0,9.0,5.0,3.0,8.0,3.0,8.0,2.0,2.0,6.0,4.0,4.0,4.0,0.0,5.0,6.0,6.0,1.0,2.0,1.0,5.0,4.0,4.0,4.0,2.0,5.0,5.0,3.0,5.0,5.0,2.0,2.0,3.0,3.0,5.0,1.0,6.0,2.0,2.0,2.0,1.0,1.0,1.0,2.0,6.0,2.0,99.0,99.0,99.0,2.0,2.0,1.0,1.0,3.0,1.0,2.0,1.0,5.0,4.0,,5.0,5.0,6.0,5.0,5.0,5.0,5.0,6.0,5.0,5.0,5.0,1.0,5.0,1.0,3.0,4.0,1.0,1.0,4.0,2.0,2.0,4.0,2.0,2.0,1.0,5.0,,5.0,5.0,5.0,5.0,5.0,3.0,,1.9,1.666667,4.0,2.666667,4.333333,2.0,4.0,5.2
86685,1312,2020-04-01 19:17:43,SME,65,Male,"College degree, bachelor, master",Up to 6 years of school,Full time employed,United States,yes,Florida,Other or would rather not say,1.0,No,Life carries on with minor changes,3.0,0.0,Program A,,No,1.0,1.0,1.0,5.0,4.0,1.0,5.0,5.0,1.0,1.0,1.0,1.0,1.0,9.0,10.0,8.0,10.0,10.0,10.0,10.0,8.0,6.0,6.0,6.0,,6.0,8.0,6.0,6.0,6.0,1.0,6.0,1.0,6.0,2.0,6.0,6.0,6.0,4.0,6.0,6.0,6.0,1.0,6.0,6.0,6.0,1.0,6.0,1.0,1.0,,1.0,1.0,1.0,1.0,4.0,1.0,2.0,1.0,1.0,3.0,1.0,1.0,1.0,1.0,1.0,1.0,1.0,1.0,1.0,1.0,1.0,,6.0,6.0,6.0,6.0,6.0,6.0,6.0,6.0,6.0,6.0,6.0,6.0,6.0,6.0,6.0,2.0,3.0,1.0,6.0,6.0,6.0,6.0,6.0,6.0,6.0,6.0,,6.0,6.0,4.0,5.0,4.0,5.0,Tengo confianza.,1.1,1.0,3.0,5.0,6.0,6.0,6.0,6.0
86690,314,2020-04-01 19:00:43,FR,27,Male,PhD/Doctorate,Some College or equivalent,Full time employed,United States,yes,New York,Single,0.0,No,Life carries on with minor changes,1.0,0.0,Program A,,,,,,,,,,,,,,,,,,,,,,,,,,,,,,,,,,,,,,,,,,,,,,,,,,,,,,,,,,,,,,,,,,,,,,,,,,,,,,,,,,,,,,,,,,,,,,,,,,,,,,,,,,,,,,,,,,,,,
86702,498,2020-03-31 19:01:13,EN,32,Female,PhD/Doctorate,Some College or equivalent,Full time employed,United States,no,Idaho,Married/cohabiting,0.0,Yes,Isolated,1.0,0.0,,Program D,No,5.0,5.0,5.0,3.0,1.0,5.0,3.0,1.0,3.0,5.0,2.0,1.0,3.0,3.0,5.0,0.0,0.0,4.0,5.0,10.0,0.0,4.0,4.0,4.0,6.0,6.0,0.0,6.0,6.0,6.0,1.0,1.0,3.0,5.0,3.0,4.0,5.0,5.0,1.0,5.0,6.0,4.0,1.0,4.0,4.0,6.0,4.0,5.0,2.0,5.0,99.0,6.0,1.0,6.0,1.0,1.0,99.0,6.0,6.0,4.0,5.0,6.0,4.0,4.0,5.0,6.0,4.0,4.0,5.0,1.0,6.0,5.0,,5.0,5.0,6.0,5.0,5.0,6.0,6.0,6.0,6.0,6.0,1.0,4.0,5.0,1.0,5.0,2.0,6.0,4.0,4.0,4.0,4.0,3.0,2.0,4.0,1.0,2.0,,4.0,6.0,6.0,6.0,6.0,4.0,,4.4,2.0,3.666667,5.333333,5.0,4.666667,4.666667,5.6
86716,6978,2020-04-01 20:47:44,EN,62,Female,"Some College, short continuing education or equivalent",Up to 12 years of school,Retired,United States,no,Minnesota,Divorced/widowed,0.0,Yes,Life carries on with minor changes,0.0,,,,,4.0,4.0,,2.0,2.0,5.0,2.0,1.0,,4.0,5.0,,5.0,3.0,7.0,3.0,7.0,9.0,,7.0,5.0,6.0,,6.0,5.0,5.0,3.0,2.0,6.0,6.0,2.0,2.0,1.0,6.0,6.0,1.0,4.0,2.0,4.0,2.0,4.0,2.0,,,5.0,2.0,3.0,3.0,6.0,4.0,4.0,2.0,5.0,5.0,5.0,2.0,2.0,5.0,4.0,5.0,6.0,6.0,5.0,5.0,1.0,6.0,6.0,4.0,5.0,2.0,6.0,4.0,,,,,,,,,,,,,,,,,,,,,,,,,,,,,,,,,,,,4.25,5.0,6.0,3.0,2.666667,5.0,3.0,
86839,590,2020-03-31 18:42:02,EN,37,Female,PhD/Doctorate,College degree,Full time employed,United States,yes,Idaho,Married/cohabiting,0.0,Yes,Isolated,1.0,0.0,,Program C,No,2.0,2.0,3.0,4.0,4.0,2.0,4.0,4.0,2.0,2.0,3.0,2.0,4.0,7.0,10.0,5.0,6.0,8.0,4.0,10.0,1.0,4.0,4.0,4.0,5.0,5.0,0.0,6.0,5.0,5.0,2.0,2.0,4.0,4.0,1.0,6.0,6.0,5.0,2.0,5.0,4.0,5.0,5.0,3.0,3.0,5.0,1.0,6.0,2.0,2.0,99.0,5.0,5.0,4.0,99.0,2.0,99.0,5.0,2.0,6.0,5.0,4.0,2.0,4.0,1.0,2.0,2.0,4.0,2.0,2.0,4.0,5.0,,6.0,6.0,6.0,6.0,6.0,6.0,6.0,6.0,6.0,6.0,3.0,6.0,5.0,2.0,5.0,3.0,1.0,1.0,5.0,2.0,2.0,4.0,5.0,5.0,1.0,2.0,,4.0,6.0,4.0,1.0,2.0,4.0,,2.1,3.0,2.0,5.333333,4.666667,2.666667,5.666667,6.0
86840,14485,2020-03-31 22:33:24,EN,65,Female,PhD/Doctorate,College degree,Retired,United States,no,Oregon,Married/cohabiting,0.0,Yes,Isolated,1.0,0.0,,Program C,No,2.0,2.0,3.0,4.0,4.0,2.0,5.0,4.0,5.0,1.0,1.0,1.0,1.0,6.0,8.0,3.0,8.0,8.0,4.0,10.0,1.0,6.0,1.0,6.0,6.0,6.0,0.0,5.0,6.0,6.0,1.0,1.0,6.0,6.0,5.0,6.0,1.0,1.0,6.0,5.0,6.0,6.0,4.0,3.0,6.0,6.0,4.0,6.0,3.0,99.0,99.0,99.0,6.0,2.0,1.0,2.0,99.0,5.0,2.0,5.0,6.0,5.0,1.0,99.0,2.0,2.0,2.0,2.0,2.0,2.0,2.0,2.0,Lack of exercise,5.0,5.0,5.0,5.0,5.0,5.0,5.0,5.0,5.0,5.0,2.0,2.0,2.0,2.0,2.0,4.0,5.0,5.0,5.0,2.0,5.0,2.0,2.0,4.0,1.0,4.0,Gardening,2.0,6.0,5.0,2.0,6.0,3.0,Feel our house is safe and secure on 1 acre in a beautiful spot away from people.,2.2,1.0,4.0,1.0,5.666667,4.0,5.0,5.0
86895,916,2020-03-31 18:42:00,EN,27,Female,"College degree, bachelor, master",College degree,Full time employed,United States,no,New Mexico,Single,0.0,Yes,Isolated,1.0,0.0,Program A,,No,4.0,3.0,4.0,4.0,2.0,2.0,3.0,4.0,3.0,3.0,4.0,3.0,3.0,3.0,7.0,2.0,5.0,5.0,3.0,5.0,5.0,4.0,4.0,4.0,4.0,5.0,6.0,5.0,5.0,4.0,3.0,2.0,2.0,4.0,3.0,6.0,6.0,4.0,5.0,6.0,6.0,6.0,1.0,5.0,6.0,5.0,1.0,6.0,5.0,2.0,1.0,2.0,1.0,4.0,5.0,1.0,1.0,6.0,1.0,4.0,4.0,4.0,4.0,3.0,1.0,5.0,6.0,1.0,4.0,1.0,6.0,4.0,,4.0,5.0,5.0,3.0,5.0,6.0,6.0,6.0,6.0,3.0,1.0,2.0,6.0,3.0,6.0,2.0,1.0,1.0,3.0,6.0,1.0,1.0,6.0,5.0,1.0,2.0,,4.0,2.0,2.0,1.0,2.0,2.0,The uncertainty on my job and business.,3.0,3.333333,2.666667,4.0,6.0,5.666667,5.666667,4.9
86916,842,2020-03-31 18:38:57,EN,33,Female,PhD/Doctorate,PhD/Doctorate,Self-employed,United States,no,California,Single,0.0,Yes,Isolated,3.0,0.0,Program A,,No,4.0,5.0,5.0,3.0,5.0,3.0,3.0,3.0,5.0,4.0,4.0,3.0,4.0,5.0,8.0,4.0,6.0,4.0,5.0,7.0,2.0,4.0,6.0,6.0,6.0,6.0,0.0,6.0,6.0,6.0,6.0,4.0,1.0,6.0,5.0,4.0,5.0,5.0,3.0,5.0,6.0,5.0,4.0,5.0,6.0,6.0,1.0,6.0,5.0,5.0,99.0,6.0,4.0,6.0,5.0,6.0,99.0,4.0,6.0,6.0,6.0,5.0,6.0,5.0,4.0,6.0,6.0,6.0,2.0,2.0,6.0,99.0,"Being isolated is terrible. I miss my friends so much. I hate that Trump is such an idiot. I don't trust any of his predictions and the national government response is too little, too late. There is lacking proper protective medical garb for those in the healthcare field including myself.",5.0,6.0,5.0,5.0,5.0,5.0,6.0,5.0,5.0,5.0,1.0,5.0,1.0,1.0,2.0,5.0,4.0,1.0,4.0,2.0,2.0,1.0,1.0,2.0,4.0,1.0,,1.0,1.0,1.0,1.0,1.0,1.0,,3.6,3.666667,4.666667,4.666667,5.333333,4.666667,6.0,5.2
86917,964,2020-03-31 18:40:52,EN,48,Female,"College degree, bachelor, master",PhD/Doctorate,Self-employed,United States,no,AL,Married/cohabiting,2.0,Yes,Isolated,2.0,1.0,,Program D,No,2.0,2.0,4.0,3.0,4.0,2.0,4.0,4.0,2.0,1.0,3.0,3.0,3.0,5.0,7.0,3.0,8.0,9.0,7.0,7.0,2.0,5.0,6.0,6.0,6.0,6.0,0.0,6.0,6.0,6.0,1.0,2.0,2.0,5.0,4.0,5.0,5.0,2.0,5.0,6.0,6.0,6.0,1.0,5.0,5.0,5.0,2.0,5.0,4.0,4.0,5.0,3.0,4.0,1.0,1.0,2.0,99.0,6.0,4.0,6.0,6.0,6.0,1.0,1.0,99.0,4.0,1.0,3.0,1.0,2.0,1.0,3.0,Child at boarding school far away,6.0,4.0,4.0,5.0,6.0,4.0,6.0,6.0,5.0,5.0,2.0,6.0,5.0,4.0,4.0,4.0,1.0,1.0,5.0,4.0,4.0,5.0,3.0,4.0,2.0,3.0,,4.0,5.0,5.0,5.0,5.0,3.0,Daughter in midst of 1.5 of 5 months of foreign exchange high school experience.  World closed up and her opportunity shut down and she was sent home. Life altering.  Concerned for impact on children. We have never witnessed this in our or our parents lifetime this disruption of normal life. What will long lasting impact be?,2.2,3.0,3.666667,3.0,6.0,5.333333,5.0,5.1
87056,797,2020-03-31 18:18:41,EN,50,Female,"College degree, bachelor, master",Some College or equivalent,Self-employed,United States,no,Georgia,Married/cohabiting,2.0,Yes,Isolated,1.0,0.0,,Program D,No,4.0,4.0,5.0,3.0,3.0,4.0,2.0,3.0,4.0,5.0,2.0,4.0,4.0,2.0,8.0,0.0,2.0,2.0,5.0,5.0,0.0,6.0,6.0,6.0,6.0,6.0,1.0,4.0,6.0,6.0,6.0,2.0,5.0,6.0,6.0,3.0,3.0,1.0,6.0,4.0,6.0,6.0,5.0,3.0,4.0,5.0,4.0,5.0,5.0,5.0,5.0,2.0,4.0,2.0,1.0,5.0,99.0,6.0,5.0,6.0,6.0,5.0,4.0,3.0,2.0,5.0,3.0,2.0,4.0,3.0,5.0,2.0,,5.0,5.0,5.0,5.0,5.0,4.0,5.0,6.0,5.0,5.0,1.0,1.0,5.0,4.0,5.0,5.0,5.0,5.0,5.0,5.0,3.0,1.0,2.0,5.0,1.0,1.0,,2.0,3.0,5.0,5.0,4.0,1.0,,3.9,3.333333,5.333333,1.666667,5.333333,3.0,4.333333,5.0
87092,113,2020-04-01 18:00:56,EN,36,Female,PhD/Doctorate,Some College or equivalent,Full time employed,United States,no,Dc,Married/cohabiting,1.0,Yes,Life carries on with minor changes,2.0,1.0,,,,,,,,,,,,,,,,,,,,,,,,,,,,,,,,,,,,,,,,,,,,,,,,,,,,,,,,,,,,,,,,,,,,,,,,,,,,,,,,,,,,,,,,,,,,,,,,,,,,,,,,,,,,,,,,,,,,,,
87095,223,2020-04-01 18:02:26,EN,41,Other/would rather not say,"College degree, bachelor, master",Some College or equivalent,Full time employed,United States,no,NM,Single,1.0,No,Isolated,0.0,1.0,,,,,,,,,,,,,,,,,,,,,,,,,,,,,,,,,,,,,,,,,,,,,,,,,,,,,,,,,,,,,,,,,,,,,,,,,,,,,,,,,,,,,,,,,,,,,,,,,,,,,,,,,,,,,,,,,,,,,,
87110,898,2020-04-01 18:11:41,EN,50,Female,"College degree, bachelor, master",PhD/Doctorate,Not employed,United States,no,Texas,Married/cohabiting,2.0,Yes,Isolated,1.0,1.0,,Program D,No,1.0,1.0,4.0,5.0,5.0,1.0,4.0,4.0,4.0,1.0,1.0,1.0,1.0,6.0,9.0,2.0,4.0,6.0,2.0,9.0,2.0,5.0,6.0,4.0,1.0,1.0,1.0,6.0,5.0,5.0,1.0,1.0,3.0,5.0,3.0,6.0,5.0,5.0,2.0,5.0,6.0,6.0,1.0,5.0,5.0,3.0,6.0,6.0,5.0,2.0,2.0,99.0,1.0,1.0,2.0,1.0,2.0,6.0,5.0,6.0,6.0,2.0,99.0,4.0,1.0,1.0,2.0,1.0,2.0,2.0,5.0,1.0,,3.0,5.0,6.0,6.0,6.0,5.0,6.0,6.0,6.0,3.0,2.0,2.0,6.0,1.0,5.0,6.0,1.0,1.0,5.0,4.0,5.0,5.0,5.0,5.0,6.0,4.0,,2.0,6.0,5.0,5.0,6.0,2.0,"My husband is an essential worker, and I feel anxious he will be exposed, and bring it home.",1.8,1.0,3.0,5.0,5.666667,5.333333,3.333333,5.2
87150,1156,2020-03-31 18:12:09,EN,46,Female,"College degree, bachelor, master",College degree,Full time employed,United States,no,NH,Married/cohabiting,1.0,Yes,Isolated,1.0,1.0,,Program D,No,3.0,2.0,4.0,4.0,3.0,1.0,4.0,4.0,3.0,2.0,3.0,2.0,3.0,6.0,8.0,2.0,6.0,7.0,6.0,10.0,0.0,4.0,5.0,5.0,6.0,6.0,0.0,6.0,5.0,5.0,1.0,3.0,3.0,4.0,3.0,4.0,4.0,4.0,4.0,4.0,5.0,4.0,3.0,5.0,4.0,3.0,2.0,6.0,2.0,4.0,2.0,1.0,1.0,1.0,1.0,2.0,4.0,6.0,2.0,5.0,5.0,4.0,4.0,1.0,4.0,3.0,2.0,2.0,2.0,1.0,4.0,1.0,,6.0,6.0,5.0,6.0,6.0,5.0,6.0,6.0,5.0,6.0,2.0,6.0,6.0,6.0,6.0,5.0,1.0,1.0,5.0,5.0,3.0,5.0,5.0,6.0,1.0,5.0,Getting outside,2.0,3.0,2.0,3.0,2.0,2.0,,2.4,2.666667,3.333333,3.666667,4.333333,4.333333,4.666667,5.7
87153,1722,2020-03-31 18:21:29,SME,46,Female,"College degree, bachelor, master",College degree,Full time employed,United States,yes,California,Married/cohabiting,2.0,Not sure,Life carries on with minor changes,1.0,,,,,2.0,3.0,3.0,3.0,3.0,3.0,3.0,3.0,3.0,2.0,2.0,2.0,2.0,8.0,8.0,5.0,8.0,5.0,5.0,7.0,7.0,4.0,5.0,5.0,5.0,5.0,5.0,5.0,5.0,5.0,3.0,4.0,3.0,6.0,2.0,5.0,5.0,5.0,3.0,4.0,4.0,5.0,3.0,4.0,6.0,5.0,2.0,5.0,4.0,4.0,5.0,5.0,5.0,4.0,5.0,3.0,3.0,5.0,4.0,5.0,4.0,4.0,1.0,3.0,3.0,2.0,3.0,3.0,4.0,3.0,4.0,3.0,,5.0,5.0,5.0,5.0,5.0,5.0,5.0,5.0,5.0,5.0,5.0,5.0,5.0,5.0,5.0,5.0,3.0,3.0,5.0,5.0,4.0,5.0,5.0,5.0,5.0,5.0,,4.0,4.0,4.0,3.0,4.0,3.0,"Mi preocupacion es mi familia en casa, Ellos estan en cuarentena y yo no he podido dejar de trabajar, aunque trate de guardar distancia con otras personas es impossible porque trabajo en servicio Al clients en un supermercado. Entro y salgo todos los dias auque trato de tomar todas Las precauciones ",2.8,2.0,3.333333,4.666667,4.333333,4.666667,5.0,5.0
87169,1218,2020-03-31 18:11:20,EN,58,Female,PhD/Doctorate,College degree,Full time employed,United States,no,CA,Married/cohabiting,1.0,No,Isolated,4.0,0.0,,Program C,No,3.0,2.0,3.0,4.0,4.0,2.0,4.0,4.0,2.0,2.0,1.0,1.0,1.0,6.0,7.0,3.0,7.0,8.0,6.0,6.0,4.0,2.0,4.0,5.0,4.0,5.0,0.0,5.0,6.0,6.0,1.0,3.0,2.0,2.0,2.0,5.0,5.0,5.0,2.0,5.0,4.0,4.0,6.0,5.0,5.0,5.0,2.0,5.0,2.0,2.0,2.0,2.0,2.0,3.0,2.0,4.0,99.0,4.0,2.0,3.0,3.0,2.0,2.0,2.0,2.0,2.0,3.0,2.0,2.0,2.0,2.0,3.0,,5.0,5.0,5.0,5.0,5.0,5.0,5.0,5.0,5.0,5.0,5.0,5.0,5.0,5.0,5.0,4.0,2.0,2.0,5.0,5.0,4.0,5.0,5.0,5.0,6.0,4.0,,4.0,3.0,3.0,3.0,4.0,3.0,,2.2,1.0,2.0,5.0,4.333333,3.666667,5.0,5.0
87178,1210,2020-03-31 18:09:38,EN,70,Female,"Some College, short continuing education or equivalent",Some College or equivalent,Retired,United States,no,Pennsylvania,Divorced/widowed,4.0,Yes,Life carries on with minor changes,0.0,0.0,Program B,,Not sure,2.0,3.0,3.0,5.0,4.0,3.0,3.0,3.0,4.0,3.0,4.0,3.0,4.0,6.0,8.0,5.0,5.0,5.0,5.0,5.0,5.0,3.0,3.0,3.0,3.0,3.0,5.0,5.0,4.0,4.0,2.0,4.0,1.0,6.0,4.0,5.0,4.0,4.0,5.0,4.0,4.0,2.0,4.0,5.0,4.0,4.0,5.0,4.0,99.0,5.0,6.0,99.0,6.0,5.0,4.0,99.0,99.0,6.0,5.0,5.0,5.0,5.0,5.0,5.0,5.0,6.0,6.0,5.0,5.0,5.0,6.0,99.0,,5.0,5.0,4.0,4.0,4.0,5.0,5.0,5.0,4.0,5.0,4.0,5.0,5.0,4.0,5.0,5.0,4.0,5.0,5.0,4.0,5.0,4.0,2.0,5.0,5.0,4.0,,5.0,4.0,1.0,5.0,5.0,1.0,,2.7,3.666667,4.0,3.333333,3.333333,4.0,3.333333,4.6
87204,1457,2020-03-31 18:10:26,EN,26,Female,"College degree, bachelor, master",College degree,Full time employed,United States,no,Wisconsin,Single,0.0,Yes,Isolated,0.0,0.0,,Program C,No,3.0,4.0,4.0,4.0,2.0,1.0,3.0,3.0,3.0,2.0,4.0,2.0,4.0,7.0,9.0,4.0,1.0,8.0,1.0,9.0,2.0,5.0,6.0,5.0,6.0,5.0,0.0,5.0,5.0,5.0,3.0,2.0,6.0,2.0,2.0,5.0,5.0,5.0,2.0,6.0,5.0,6.0,5.0,4.0,4.0,2.0,4.0,5.0,2.0,2.0,99.0,4.0,4.0,6.0,99.0,99.0,99.0,4.0,5.0,5.0,6.0,6.0,1.0,3.0,2.0,5.0,6.0,4.0,3.0,2.0,6.0,6.0,,6.0,6.0,6.0,6.0,6.0,6.0,6.0,6.0,6.0,6.0,2.0,1.0,6.0,1.0,5.0,4.0,1.0,1.0,4.0,4.0,6.0,2.0,5.0,5.0,1.0,1.0,,4.0,2.0,6.0,4.0,6.0,4.0,I don't know what I will do when my lease is up at the end of June. The uncertainty is hard. I don't know if I'll be able to move back to California with my family. I don't know if state lines will be closed. Will our leases be extended automatically?,2.9,3.333333,2.0,5.0,5.666667,3.333333,3.333333,6.0
87248,1194,2020-03-31 17:59:46,FR,24,Male,"College degree, bachelor, master",College degree,Full time employed,United States,yes,Centre,Single,0.0,Yes,Life carries on with minor changes,1.0,0.0,Program B,,No,2.0,4.0,2.0,4.0,4.0,2.0,3.0,3.0,3.0,1.0,2.0,1.0,2.0,2.0,7.0,6.0,5.0,5.0,7.0,8.0,5.0,3.0,5.0,3.0,4.0,4.0,4.0,5.0,5.0,5.0,1.0,3.0,3.0,4.0,5.0,4.0,5.0,5.0,4.0,5.0,5.0,5.0,3.0,3.0,4.0,3.0,4.0,5.0,2.0,5.0,99.0,2.0,3.0,5.0,1.0,4.0,99.0,5.0,5.0,5.0,6.0,6.0,3.0,2.0,3.0,3.0,3.0,3.0,4.0,3.0,5.0,4.0,,4.0,5.0,4.0,3.0,5.0,4.0,4.0,1.0,5.0,4.0,5.0,5.0,5.0,5.0,4.0,4.0,6.0,6.0,2.0,4.0,3.0,4.0,5.0,6.0,1.0,4.0,,5.0,4.0,4.0,5.0,4.0,5.0,,2.4,1.666667,4.0,4.333333,5.0,3.666667,3.666667,3.9
87294,6034,2020-04-01 19:15:26,EN,48,Male,"College degree, bachelor, master",Some College or equivalent,Full time employed,United States,no,New York,Married/cohabiting,3.0,Yes,Isolated,1.0,0.0,Program A,,No,2.0,3.0,3.0,4.0,2.0,2.0,3.0,4.0,3.0,3.0,1.0,4.0,4.0,3.0,7.0,2.0,,4.0,7.0,9.0,,2.0,3.0,5.0,6.0,6.0,1.0,5.0,5.0,5.0,2.0,3.0,4.0,5.0,2.0,5.0,6.0,6.0,3.0,6.0,5.0,6.0,3.0,3.0,5.0,4.0,2.0,5.0,,,,,,,,,,,,,,,,,,,,,,,,,,,,,,,,,,,,,,,,,,,,,,,,,,,,,,,,,,,,2.7,3.0,3.0,5.333333,5.666667,4.0,4.666667,
87369,569,2020-03-31 17:35:00,EN,22,Female,"College degree, bachelor, master",College degree,Student,United States,no,North Carolina,Single,0.0,Yes,Isolated,3.0,1.0,,Program D,No,2.0,4.0,5.0,2.0,1.0,3.0,2.0,1.0,3.0,4.0,5.0,5.0,4.0,1.0,7.0,,,2.0,3.0,3.0,,6.0,6.0,6.0,6.0,6.0,0.0,5.0,5.0,6.0,2.0,1.0,4.0,6.0,6.0,1.0,5.0,3.0,3.0,2.0,6.0,2.0,3.0,1.0,5.0,4.0,4.0,4.0,6.0,4.0,99.0,6.0,5.0,5.0,1.0,6.0,5.0,6.0,4.0,4.0,6.0,6.0,3.0,4.0,4.0,6.0,4.0,6.0,6.0,5.0,6.0,3.0,,4.0,4.0,4.0,3.0,5.0,3.0,4.0,4.0,3.0,5.0,1.0,4.0,2.0,1.0,1.0,4.0,1.0,1.0,4.0,4.0,1.0,1.0,,5.0,1.0,1.0,,4.0,6.0,6.0,1.0,1.0,2.0,,3.9,4.666667,6.0,4.0,3.333333,3.333333,3.666667,3.9
87375,747,2020-03-31 17:37:20,EN,38,Female,"College degree, bachelor, master",College degree,Full time employed,United States,no,Idaho,Married/cohabiting,3.0,No,Isolated,1.0,1.0,Program A,,No,1.0,2.0,3.0,5.0,3.0,1.0,5.0,4.0,2.0,1.0,2.0,1.0,4.0,7.0,10.0,7.0,7.0,7.0,5.0,5.0,7.0,6.0,6.0,6.0,6.0,6.0,3.0,6.0,3.0,4.0,6.0,3.0,3.0,5.0,3.0,6.0,3.0,3.0,4.0,6.0,3.0,6.0,3.0,5.0,5.0,3.0,1.0,6.0,2.0,2.0,6.0,2.0,4.0,2.0,6.0,1.0,2.0,4.0,1.0,5.0,5.0,6.0,1.0,1.0,2.0,2.0,5.0,2.0,1.0,1.0,5.0,5.0,"My older parents live in another state. I just want to go and be with them, or bring them to me. I wish that was practical. I cannot imagine if they get sick.",5.0,5.0,5.0,5.0,5.0,5.0,5.0,6.0,5.0,5.0,5.0,5.0,5.0,2.0,5.0,5.0,2.0,2.0,5.0,5.0,5.0,6.0,5.0,3.0,5.0,5.0,,3.0,3.0,3.0,4.0,5.0,4.0,"Of those hospitalized in Idaho, more than half are health care workers. That absolutely breaks my heart. I wish I could provide them the proper PPE. I would pay anything to protect them. I realize staying home is good advice but that isn't enough to protect these people.",1.7,2.333333,3.0,3.0,5.0,4.666667,5.0,5.1
87446,549,2020-04-01 17:28:26,EN,54,Male,"Some College, short continuing education or equivalent",Some College or equivalent,Full time employed,United States,no,Michigan,Single,0.0,Yes,Life carries on with minor changes,0.0,0.0,Program A,,No,1.0,2.0,3.0,4.0,4.0,1.0,4.0,4.0,2.0,2.0,3.0,1.0,2.0,5.0,7.0,4.0,5.0,7.0,2.0,7.0,1.0,5.0,5.0,5.0,5.0,5.0,2.0,5.0,5.0,5.0,2.0,4.0,2.0,,,,,,,,,,,,,,,,,,,,,,,,,,,,,,,,,,,,,,,,,,,,,,,,,,,,,,,,,,,,,,,,,,,,,,,,,,,1.9,2.0,,,,,,
87455,488,2020-03-31 17:25:20,EN,27,Female,PhD/Doctorate,PhD/Doctorate,Full time employed,United States,yes,IL,Married/cohabiting,0.0,Yes,Isolated,1.0,0.0,Program A,,No,4.0,5.0,4.0,3.0,3.0,2.0,3.0,3.0,4.0,2.0,2.0,3.0,4.0,6.0,9.0,5.0,8.0,8.0,5.0,8.0,3.0,6.0,6.0,6.0,6.0,6.0,3.0,5.0,6.0,5.0,2.0,5.0,4.0,5.0,5.0,4.0,5.0,5.0,2.0,3.0,5.0,5.0,3.0,5.0,5.0,5.0,2.0,5.0,2.0,5.0,2.0,3.0,6.0,5.0,4.0,2.0,2.0,4.0,4.0,5.0,6.0,6.0,5.0,3.0,5.0,2.0,5.0,3.0,3.0,3.0,6.0,4.0,,5.0,5.0,5.0,5.0,5.0,5.0,5.0,5.0,5.0,5.0,2.0,5.0,6.0,5.0,5.0,4.0,5.0,5.0,5.0,3.0,4.0,4.0,2.0,5.0,6.0,2.0,,5.0,2.0,2.0,5.0,5.0,2.0,,3.3,3.0,4.333333,5.0,4.333333,4.666667,5.0,5.0
87487,1073,2020-03-31 17:32:06,EN,55,Female,"College degree, bachelor, master",Up to 6 years of school,Retired,United States,no,Ky,Single,0.0,Yes,Isolated,1.0,0.0,,Program C,No,3.0,2.0,3.0,4.0,3.0,4.0,3.0,4.0,4.0,2.0,3.0,1.0,2.0,5.0,7.0,3.0,6.0,3.0,2.0,6.0,1.0,4.0,5.0,5.0,4.0,4.0,0.0,5.0,5.0,5.0,2.0,4.0,4.0,4.0,4.0,4.0,1.0,3.0,4.0,4.0,4.0,4.0,4.0,3.0,5.0,4.0,4.0,4.0,99.0,99.0,99.0,99.0,4.0,3.0,99.0,4.0,99.0,4.0,4.0,4.0,4.0,4.0,99.0,99.0,99.0,4.0,4.0,99.0,4.0,99.0,5.0,99.0,"Our president is a feckless idiot,",4.0,3.0,4.0,4.0,4.0,4.0,4.0,5.0,5.0,3.0,3.0,3.0,2.0,2.0,4.0,4.0,2.0,2.0,4.0,2.0,4.0,2.0,2.0,4.0,5.0,4.0,,2.0,2.0,2.0,2.0,2.0,2.0,Please do something to stop trump from destroying our country.,2.8,2.0,3.666667,2.333333,4.0,3.666667,3.666667,4.0
87606,1031,2020-03-31 17:21:48,EN,37,Female,"College degree, bachelor, master",Up to 12 years of school,Not employed,United States,no,PA,Married/cohabiting,4.0,Yes,Isolated,1.0,4.0,Program A,,No,3.0,2.0,3.0,4.0,3.0,2.0,3.0,4.0,3.0,3.0,3.0,3.0,3.0,7.0,8.0,1.0,8.0,7.0,3.0,3.0,3.0,2.0,3.0,3.0,5.0,5.0,3.0,5.0,5.0,5.0,2.0,2.0,2.0,4.0,5.0,4.0,4.0,3.0,5.0,4.0,4.0,4.0,4.0,5.0,5.0,4.0,2.0,5.0,3.0,5.0,4.0,99.0,4.0,4.0,5.0,3.0,5.0,5.0,5.0,4.0,4.0,5.0,99.0,5.0,4.0,5.0,5.0,4.0,3.0,2.0,4.0,3.0,,4.0,4.0,4.0,4.0,3.0,2.0,3.0,5.0,2.0,4.0,3.0,2.0,4.0,1.0,4.0,3.0,1.0,1.0,1.0,5.0,2.0,4.0,4.0,3.0,5.0,4.0,,4.0,4.0,4.0,4.0,4.0,2.0,"Trying to take a lead role in the education of my children has been the hardest part so far. Coupled with trying to explain that we are safe but need to stay home and can only interact with each other to four children under 12 is difficult. Navigating the emotions, questions and behaviors of these children all day, every day, while also trying to keep my emotions and reactions in check is very taxing. Oh, and the jerks that are hoarding essential items from grocery stores so that others don't have any- THAT is super upsetting",2.6,3.0,4.0,3.0,4.0,4.333333,4.666667,3.5
87607,735,2020-03-31 17:16:49,EN,66,Other/would rather not say,"College degree, bachelor, master",Up to 12 years of school,Retired,United States,no,Indiana,Single,0.0,Yes,Isolated,1.0,0.0,,Program C,No,4.0,3.0,4.0,4.0,3.0,3.0,3.0,4.0,4.0,2.0,2.0,2.0,4.0,6.0,9.0,6.0,8.0,10.0,3.0,9.0,1.0,6.0,6.0,6.0,6.0,6.0,0.0,6.0,6.0,6.0,2.0,6.0,6.0,5.0,3.0,5.0,4.0,3.0,4.0,6.0,6.0,6.0,2.0,5.0,6.0,5.0,1.0,6.0,4.0,2.0,99.0,99.0,5.0,5.0,1.0,1.0,99.0,2.0,99.0,6.0,4.0,6.0,1.0,2.0,4.0,1.0,5.0,2.0,5.0,2.0,4.0,1.0,,6.0,6.0,6.0,6.0,2.0,6.0,6.0,3.0,1.0,6.0,5.0,5.0,4.0,4.0,3.0,5.0,1.0,1.0,5.0,5.0,6.0,5.0,4.0,5.0,1.0,5.0,,5.0,6.0,6.0,4.0,5.0,4.0,,3.0,2.666667,3.333333,3.333333,6.0,5.333333,5.666667,4.8
87665,1445,2020-04-01 17:25:12,EN,54,Female,"College degree, bachelor, master",Up to 12 years of school,Retired,United States,no,California,Married/cohabiting,0.0,Yes,Isolated,2.0,0.0,Program A,,No,3.0,3.0,5.0,4.0,3.0,3.0,3.0,2.0,5.0,3.0,2.0,2.0,2.0,3.0,4.0,0.0,3.0,4.0,3.0,8.0,0.0,5.0,6.0,5.0,6.0,5.0,0.0,5.0,4.0,3.0,2.0,2.0,5.0,5.0,5.0,3.0,2.0,1.0,4.0,2.0,4.0,4.0,3.0,4.0,5.0,4.0,4.0,4.0,4.0,,99.0,2.0,3.0,4.0,99.0,2.0,99.0,5.0,4.0,6.0,6.0,,99.0,4.0,2.0,4.0,99.0,2.0,3.0,2.0,4.0,4.0,,6.0,5.0,6.0,5.0,5.0,5.0,5.0,6.0,5.0,6.0,1.0,5.0,2.0,2.0,4.0,5.0,2.0,,5.0,4.0,5.0,2.0,4.0,5.0,3.0,1.0,Mindfulness,2.0,5.0,4.0,4.0,5.0,2.0,Thank goodness we don't have to work and we have a secure source of income. Otherwise I would really be stressing.,3.4,2.0,4.666667,2.0,3.333333,4.333333,3.666667,5.4
87687,365,2020-04-01 17:05:47,AR,61,Male,"College degree, bachelor, master",Up to 9 years of school,Full time employed,United States,no,<U+0646><U+064A><U+0641><U+0627><U+062F><U+0627>,Single,2.0,Yes,Life carries on with minor changes,4.0,0.0,Program A,,No,3.0,2.0,4.0,3.0,2.0,2.0,4.0,2.0,3.0,1.0,1.0,4.0,2.0,,,,,,,,,,,,,,,,,,,,,,,,,,,,,,,,,,,,,,,,,,,,,,,,,,,,,,,,,,,,,,,,,,,,,,,,,,,,,,,,,,,,,,,,,,,,,,,2.8,2.333333,,,,,,
87860,1372,2020-03-31 17:07:31,EN,63,Female,"College degree, bachelor, master",Up to 12 years of school,Retired,United States,no,Michigan,Married/cohabiting,0.0,Yes,Isolated,3.0,0.0,Program A,,No,2.0,3.0,3.0,5.0,2.0,1.0,5.0,4.0,3.0,1.0,1.0,2.0,2.0,3.0,9.0,5.0,9.0,9.0,9.0,7.0,2.0,6.0,6.0,6.0,6.0,6.0,4.0,5.0,6.0,6.0,1.0,2.0,1.0,4.0,1.0,6.0,3.0,3.0,5.0,3.0,4.0,2.0,5.0,5.0,5.0,6.0,1.0,5.0,6.0,99.0,99.0,99.0,5.0,4.0,1.0,1.0,99.0,6.0,6.0,6.0,6.0,6.0,99.0,1.0,1.0,1.0,3.0,99.0,5.0,1.0,2.0,99.0,,6.0,6.0,5.0,6.0,6.0,5.0,6.0,6.0,5.0,6.0,4.0,1.0,1.0,1.0,1.0,5.0,4.0,1.0,4.0,5.0,5.0,6.0,1.0,5.0,1.0,1.0,,1.0,4.0,2.0,1.0,1.0,1.0,,2.1,1.666667,2.0,2.666667,3.0,4.0,5.666667,5.7
87885,825,2020-03-31 16:57:01,ZH-T,31,Male,PhD/Doctorate,College degree,Full time employed,United States,yes,,Single,0.0,Yes,Isolated,2.0,0.0,,Program C,Not sure,3.0,2.0,3.0,4.0,4.0,3.0,3.0,4.0,2.0,2.0,1.0,2.0,2.0,7.0,8.0,7.0,5.0,6.0,3.0,1.0,6.0,4.0,4.0,3.0,4.0,4.0,4.0,2.0,6.0,6.0,4.0,3.0,6.0,5.0,5.0,5.0,4.0,5.0,5.0,5.0,5.0,5.0,2.0,6.0,6.0,5.0,5.0,4.0,4.0,5.0,99.0,6.0,5.0,5.0,1.0,5.0,99.0,6.0,5.0,5.0,5.0,6.0,4.0,2.0,3.0,4.0,4.0,,5.0,3.0,4.0,5.0,,5.0,6.0,3.0,6.0,6.0,5.0,6.0,6.0,4.0,6.0,3.0,6.0,6.0,2.0,6.0,5.0,5.0,6.0,4.0,5.0,5.0,4.0,5.0,6.0,1.0,4.0,,5.0,4.0,5.0,4.0,6.0,3.0,,2.4,1.666667,4.0,3.666667,5.0,5.666667,3.666667,5.3
87992,1200,2020-03-31 16:56:47,FR,29,Female,PhD/Doctorate,College degree,Full time employed,United States,yes,California,Single,0.0,Yes,Life carries on with minor changes,0.0,0.0,Program B,,No,1.0,2.0,2.0,5.0,4.0,3.0,4.0,4.0,2.0,2.0,1.0,1.0,1.0,6.0,8.0,1.0,1.0,6.0,8.0,5.0,1.0,3.0,5.0,4.0,6.0,6.0,0.0,4.0,5.0,4.0,2.0,2.0,1.0,5.0,3.0,4.0,4.0,2.0,5.0,4.0,4.0,3.0,4.0,5.0,5.0,4.0,4.0,4.0,1.0,1.0,99.0,1.0,2.0,1.0,1.0,99.0,99.0,3.0,4.0,2.0,3.0,1.0,1.0,1.0,2.0,2.0,4.0,2.0,2.0,2.0,3.0,2.0,,6.0,6.0,5.0,6.0,5.0,6.0,4.0,6.0,6.0,6.0,2.0,4.0,6.0,4.0,6.0,1.0,6.0,6.0,5.0,4.0,1.0,4.0,6.0,4.0,1.0,2.0,,4.0,1.0,2.0,2.0,4.0,4.0,Je travaille sur le Coronavirus,1.9,1.0,3.666667,2.666667,3.666667,4.333333,3.666667,5.6
88053,961,2020-03-31 16:50:26,SME,35,Female,PhD/Doctorate,Up to 6 years of school,Part time employed,United States,yes,,Married/cohabiting,1.0,Yes,Isolated,1.0,1.0,Program A,,No,2.0,2.0,5.0,3.0,3.0,2.0,5.0,3.0,1.0,1.0,3.0,2.0,5.0,7.0,8.0,1.0,4.0,1.0,2.0,5.0,1.0,4.0,6.0,4.0,6.0,6.0,1.0,6.0,5.0,6.0,2.0,4.0,5.0,6.0,3.0,5.0,5.0,4.0,4.0,4.0,5.0,5.0,2.0,5.0,6.0,5.0,3.0,4.0,5.0,4.0,6.0,4.0,4.0,2.0,1.0,2.0,2.0,5.0,5.0,5.0,6.0,6.0,4.0,4.0,5.0,4.0,5.0,3.0,4.0,5.0,4.0,5.0,,5.0,5.0,4.0,5.0,5.0,5.0,5.0,5.0,5.0,4.0,2.0,1.0,6.0,1.0,5.0,4.0,1.0,1.0,4.0,5.0,4.0,3.0,5.0,2.0,1.0,3.0,,3.0,2.0,5.0,5.0,4.0,3.0,"Creo que a muchas nos angustia la situación a la que se enfrentan otras personas en situaciones menos privilegiadas que quienes todavía tenemos techo y trabajo. Soy profesora y la salud y bienestar de mis estudiantes y ja de sus familias me preocupa mucho, así como también la mimbros de mi comunidad que han pedido sus trabajos, especialmente los que no tienes ""papeles"".  Me preocupa mucho pensar qué va a parar con tantas familias que quedan sin ingresos.",2.3,3.333333,3.666667,4.0,4.666667,5.333333,4.333333,4.8
88076,1594,2020-03-31 16:59:55,SME,45,Female,"Some College, short continuing education or equivalent",Some College or equivalent,Self-employed,United States,yes,Texas,Married/cohabiting,0.0,Not sure,Isolated,1.0,0.0,Program B,,No,2.0,2.0,5.0,4.0,4.0,3.0,4.0,4.0,1.0,3.0,3.0,3.0,4.0,8.0,7.0,5.0,1.0,7.0,0.0,8.0,3.0,5.0,5.0,4.0,6.0,6.0,3.0,5.0,6.0,6.0,2.0,3.0,2.0,5.0,2.0,3.0,6.0,6.0,5.0,6.0,6.0,6.0,3.0,4.0,5.0,5.0,2.0,5.0,6.0,99.0,99.0,5.0,6.0,4.0,1.0,3.0,99.0,6.0,6.0,6.0,6.0,6.0,2.0,99.0,4.0,5.0,5.0,4.0,6.0,2.0,6.0,2.0,,5.0,5.0,6.0,6.0,6.0,5.0,5.0,6.0,4.0,6.0,2.0,4.0,5.0,5.0,5.0,5.0,4.0,5.0,6.0,4.0,4.0,3.0,6.0,3.0,2.0,1.0,,6.0,6.0,6.0,3.0,6.0,1.0,Mi mayor preocupación es estar alejada de mi familia en México y que en este país (USA) no cuento con seguro medico.,2.4,3.333333,3.666667,4.666667,6.0,4.333333,5.0,5.4
88082,423,2020-04-01 16:40:54,EN,29,Female,"College degree, bachelor, master",Up to 12 years of school,Full time employed,United States,no,,Married/cohabiting,0.0,Yes,Isolated,1.0,0.0,,Program C,No,5.0,5.0,5.0,2.0,2.0,5.0,3.0,2.0,5.0,4.0,3.0,4.0,3.0,3.0,6.0,1.0,3.0,3.0,2.0,3.0,0.0,6.0,6.0,6.0,6.0,6.0,0.0,3.0,5.0,5.0,1.0,1.0,2.0,6.0,6.0,3.0,2.0,2.0,5.0,4.0,6.0,6.0,2.0,3.0,6.0,5.0,3.0,4.0,3.0,4.0,99.0,6.0,4.0,2.0,99.0,2.0,99.0,5.0,5.0,6.0,6.0,6.0,4.0,3.0,2.0,2.0,1.0,6.0,4.0,4.0,3.0,1.0,,,,,,,,,,,,,,,,,,,,,,,,,,,,,,,,,,,,4.4,3.333333,5.333333,2.0,5.333333,4.666667,4.333333,
88137,1020,2020-04-01 16:47:58,EN,47,Female,"College degree, bachelor, master",College degree,Full time employed,United States,no,,Divorced/widowed,2.0,No,Isolated,1.0,0.0,Program A,,Yes,3.0,2.0,3.0,4.0,3.0,2.0,3.0,4.0,4.0,2.0,2.0,2.0,4.0,8.0,8.0,3.0,8.0,8.0,9.0,8.0,2.0,2.0,2.0,3.0,4.0,4.0,2.0,5.0,5.0,5.0,2.0,4.0,3.0,4.0,3.0,6.0,6.0,5.0,2.0,5.0,5.0,2.0,2.0,3.0,5.0,5.0,1.0,6.0,2.0,2.0,4.0,3.0,3.0,5.0,99.0,3.0,99.0,6.0,4.0,3.0,4.0,4.0,3.0,3.0,2.0,5.0,2.0,2.0,3.0,1.0,5.0,6.0,,5.0,5.0,5.0,6.0,5.0,5.0,5.0,6.0,6.0,5.0,4.0,4.0,4.0,5.0,5.0,6.0,1.0,1.0,5.0,4.0,5.0,4.0,6.0,6.0,4.0,4.0,,6.0,6.0,2.0,3.0,6.0,5.0,,2.6,2.666667,2.666667,5.333333,4.0,4.333333,5.666667,5.3
88143,1714,2020-04-01 16:58:59,FR,30,Female,"College degree, bachelor, master",College degree,Full time employed,United States,yes,,Married/cohabiting,0.0,Yes,Life carries on with minor changes,1.0,0.0,,Program D,No,1.0,1.0,3.0,5.0,3.0,1.0,2.0,4.0,3.0,2.0,3.0,1.0,3.0,,,,,,,,,,,,,,,,,,,,,,,,,,,,,,,,,,,,,,,,,,,,,,,,,,,,,,,,,,,,,,,,,,,,,,,,,,,,,,,,,,,,,,,,,,,,,,,2.1,2.333333,,,,,,
88180,741,2020-03-31 16:41:09,EN,23,Female,"College degree, bachelor, master",Some College or equivalent,Not employed,United States,yes,British Columbia,Married/cohabiting,0.0,No,Isolated,1.0,0.0,,Program C,No,2.0,4.0,3.0,5.0,3.0,3.0,4.0,4.0,3.0,2.0,3.0,3.0,4.0,3.0,7.0,3.0,4.0,5.0,5.0,8.0,3.0,4.0,5.0,4.0,5.0,6.0,0.0,5.0,4.0,4.0,4.0,1.0,3.0,4.0,5.0,3.0,4.0,3.0,6.0,5.0,4.0,5.0,3.0,5.0,4.0,4.0,3.0,5.0,99.0,99.0,99.0,6.0,5.0,5.0,1.0,4.0,99.0,5.0,3.0,5.0,5.0,5.0,2.0,3.0,2.0,4.0,5.0,,3.0,4.0,6.0,99.0,,6.0,4.0,3.0,5.0,6.0,5.0,6.0,6.0,5.0,6.0,4.0,1.0,5.0,2.0,3.0,2.0,4.0,5.0,4.0,3.0,4.0,5.0,5.0,4.0,1.0,5.0,,1.0,4.0,5.0,4.0,2.0,1.0,,2.5,3.333333,4.333333,2.666667,4.666667,4.333333,4.333333,5.2
88261,536,2020-03-31 16:33:50,EN,29,Female,"College degree, bachelor, master",College degree,Full time employed,United States,no,Ne,Married/cohabiting,1.0,No,Isolated,2.0,1.0,Program A,,No,3.0,3.0,4.0,4.0,3.0,2.0,3.0,3.0,5.0,3.0,2.0,3.0,4.0,6.0,9.0,6.0,6.0,6.0,6.0,6.0,4.0,5.0,5.0,5.0,5.0,5.0,0.0,5.0,5.0,5.0,5.0,5.0,2.0,5.0,5.0,4.0,5.0,5.0,2.0,4.0,5.0,5.0,3.0,5.0,5.0,5.0,3.0,5.0,2.0,6.0,2.0,4.0,2.0,6.0,1.0,3.0,1.0,5.0,4.0,6.0,5.0,6.0,4.0,5.0,2.0,5.0,6.0,2.0,2.0,2.0,5.0,6.0,,5.0,5.0,5.0,5.0,5.0,5.0,5.0,5.0,4.0,5.0,4.0,5.0,5.0,5.0,5.0,5.0,2.0,2.0,5.0,5.0,4.0,5.0,5.0,5.0,1.0,5.0,,5.0,5.0,5.0,5.0,5.0,2.0,,3.1,3.0,4.333333,5.0,4.666667,4.666667,4.666667,4.9
88348,1387,2020-03-31 16:45:40,LT,44,Female,"Some College, short continuing education or equivalent",Some College or equivalent,Full time employed,United States,yes,Illinois,Divorced/widowed,1.0,No,Life carries on with minor changes,0.0,0.0,,Program D,No,1.0,1.0,3.0,5.0,4.0,2.0,4.0,5.0,3.0,1.0,1.0,1.0,1.0,0.0,6.0,0.0,9.0,7.0,0.0,0.0,0.0,4.0,4.0,4.0,2.0,2.0,0.0,5.0,5.0,6.0,1.0,1.0,6.0,2.0,5.0,2.0,4.0,3.0,3.0,4.0,5.0,4.0,2.0,2.0,3.0,4.0,3.0,6.0,4.0,4.0,1.0,5.0,1.0,1.0,1.0,1.0,4.0,4.0,2.0,4.0,5.0,4.0,1.0,1.0,1.0,1.0,1.0,1.0,1.0,1.0,1.0,1.0,,1.0,1.0,1.0,1.0,1.0,1.0,1.0,1.0,1.0,1.0,1.0,2.0,2.0,1.0,1.0,1.0,1.0,1.0,1.0,1.0,1.0,2.0,1.0,1.0,1.0,1.0,,1.0,2.0,1.0,4.0,2.0,4.0,,1.7,1.0,4.0,3.666667,4.333333,3.333333,4.666667,1.0
88499,1099,2020-03-31 16:36:48,S-CO,56,Female,,Up to 6 years of school,Full time employed,United States,yes,Madison,Married/cohabiting,0.0,Yes,Life carries on with minor changes,0.0,0.0,,,,3.0,3.0,5.0,3.0,3.0,4.0,3.0,2.0,4.0,3.0,3.0,3.0,3.0,7.0,7.0,3.0,3.0,3.0,3.0,5.0,5.0,6.0,6.0,6.0,4.0,4.0,2.0,6.0,6.0,6.0,3.0,5.0,4.0,5.0,4.0,6.0,6.0,6.0,4.0,5.0,6.0,5.0,2.0,3.0,6.0,6.0,1.0,5.0,99.0,6.0,6.0,99.0,5.0,5.0,99.0,99.0,99.0,5.0,5.0,6.0,6.0,5.0,99.0,5.0,5.0,5.0,5.0,5.0,99.0,6.0,5.0,5.0,No aplica,6.0,6.0,6.0,6.0,6.0,6.0,6.0,6.0,6.0,6.0,4.0,6.0,6.0,5.0,6.0,3.0,3.0,2.0,6.0,6.0,5.0,6.0,6.0,5.0,2.0,4.0,,3.0,4.0,3.0,4.0,5.0,5.0,Pensar en cosas positivas,3.5,3.0,3.333333,5.0,5.333333,4.666667,5.666667,6.0
88530,1359,2020-04-01 16:40:03,FR,47,Female,"Some College, short continuing education or equivalent",Up to 12 years of school,Full time employed,United States,yes,,Married/cohabiting,1.0,Not sure,Life carries on with minor changes,1.0,0.0,Program A,,No,1.0,4.0,4.0,3.0,3.0,3.0,3.0,3.0,2.0,4.0,1.0,1.0,3.0,7.0,9.0,6.0,8.0,8.0,2.0,5.0,6.0,6.0,6.0,6.0,6.0,6.0,4.0,6.0,4.0,4.0,2.0,5.0,6.0,6.0,5.0,5.0,4.0,1.0,6.0,2.0,5.0,1.0,2.0,5.0,5.0,1.0,6.0,6.0,6.0,1.0,5.0,2.0,1.0,4.0,1.0,4.0,1.0,6.0,4.0,6.0,5.0,5.0,1.0,1.0,3.0,3.0,2.0,5.0,2.0,1.0,6.0,5.0,,6.0,4.0,5.0,6.0,6.0,4.0,6.0,6.0,4.0,6.0,2.0,4.0,5.0,5.0,5.0,5.0,2.0,2.0,4.0,5.0,2.0,6.0,2.0,5.0,1.0,4.0,,3.0,3.0,3.0,2.0,4.0,2.0,,3.0,1.666667,4.333333,2.0,2.666667,5.0,2.666667,5.3
88560,1365,2020-03-31 16:35:43,EN,55,Female,Up to 12 years of school,College degree,Part time employed,United States,no,Indiana,Divorced/widowed,0.0,Yes,Isolated,0.0,0.0,Program A,,No,3.0,4.0,5.0,2.0,2.0,3.0,4.0,2.0,3.0,5.0,3.0,2.0,3.0,4.0,8.0,3.0,4.0,6.0,6.0,9.0,2.0,6.0,6.0,6.0,6.0,6.0,0.0,5.0,5.0,6.0,2.0,3.0,4.0,6.0,6.0,3.0,4.0,2.0,5.0,5.0,6.0,5.0,5.0,1.0,3.0,2.0,5.0,5.0,6.0,2.0,99.0,5.0,6.0,5.0,1.0,99.0,99.0,4.0,4.0,6.0,6.0,6.0,1.0,4.0,1.0,5.0,2.0,6.0,3.0,3.0,4.0,4.0,,5.0,5.0,6.0,4.0,5.0,5.0,5.0,5.0,5.0,5.0,2.0,2.0,6.0,2.0,4.0,5.0,4.0,4.0,4.0,5.0,4.0,3.0,5.0,3.0,3.0,1.0,,5.0,5.0,5.0,4.0,6.0,2.0,,3.7,2.666667,5.333333,2.666667,5.333333,2.0,3.0,5.0
88590,758,2020-03-31 16:21:23,EN,31,Female,"College degree, bachelor, master",College degree,Full time employed,United States,no,,Single,0.0,No,Isolated,0.0,0.0,Program A,,No,3.0,2.0,4.0,4.0,3.0,2.0,4.0,4.0,2.0,1.0,5.0,3.0,5.0,6.0,7.0,6.0,6.0,9.0,7.0,7.0,4.0,5.0,6.0,5.0,6.0,6.0,3.0,5.0,5.0,5.0,1.0,3.0,5.0,5.0,5.0,5.0,5.0,6.0,1.0,5.0,5.0,3.0,2.0,5.0,5.0,5.0,1.0,6.0,1.0,4.0,99.0,4.0,5.0,6.0,1.0,99.0,99.0,5.0,4.0,5.0,5.0,6.0,5.0,4.0,3.0,6.0,6.0,1.0,3.0,3.0,6.0,6.0,,5.0,5.0,6.0,5.0,4.0,6.0,5.0,5.0,6.0,5.0,2.0,1.0,6.0,1.0,6.0,4.0,5.0,5.0,5.0,5.0,4.0,5.0,6.0,4.0,1.0,4.0,,5.0,5.0,5.0,5.0,5.0,3.0,,2.3,4.333333,4.0,5.666667,4.333333,5.0,5.666667,5.2
88609,1682,2020-03-31 16:34:39,FR,30,Male,"College degree, bachelor, master",College degree,Full time employed,United States,yes,Kentucky,Married/cohabiting,0.0,Yes,Life carries on with minor changes,0.0,0.0,Program A,,No,4.0,4.0,3.0,3.0,3.0,5.0,3.0,3.0,3.0,3.0,1.0,2.0,3.0,4.0,8.0,0.0,2.0,2.0,5.0,7.0,1.0,3.0,5.0,3.0,5.0,5.0,2.0,5.0,5.0,4.0,2.0,3.0,4.0,4.0,3.0,5.0,3.0,3.0,4.0,4.0,4.0,4.0,3.0,4.0,4.0,2.0,5.0,4.0,3.0,3.0,99.0,2.0,4.0,5.0,99.0,4.0,99.0,5.0,4.0,5.0,5.0,5.0,3.0,2.0,3.0,4.0,4.0,4.0,4.0,3.0,5.0,5.0,,4.0,4.0,4.0,5.0,4.0,5.0,4.0,5.0,4.0,4.0,5.0,3.0,4.0,3.0,4.0,4.0,3.0,3.0,6.0,2.0,3.0,5.0,2.0,2.0,1.0,5.0,,4.0,6.0,6.0,4.0,5.0,2.0,,3.4,2.0,3.0,3.0,4.0,4.0,2.666667,4.3
88630,614,2020-04-01 16:15:01,EN,22,Female,"College degree, bachelor, master",Some College or equivalent,Part time employed,United States,no,pa,Other or would rather not say,0.0,Yes,Life carries on with minor changes,2.0,0.0,,Program D,No,4.0,2.0,3.0,4.0,4.0,3.0,4.0,4.0,3.0,2.0,3.0,3.0,4.0,6.0,9.0,8.0,8.0,8.0,6.0,7.0,7.0,3.0,4.0,3.0,5.0,5.0,3.0,5.0,4.0,5.0,4.0,2.0,3.0,4.0,4.0,4.0,5.0,4.0,3.0,5.0,5.0,5.0,4.0,4.0,4.0,5.0,4.0,4.0,4.0,3.0,3.0,5.0,5.0,5.0,3.0,6.0,3.0,5.0,4.0,3.0,3.0,5.0,4.0,4.0,4.0,5.0,4.0,4.0,3.0,4.0,4.0,3.0,,,,,,,,,,,,,,,,,,,,,,,,,,,,,,,,,,,,2.5,3.333333,3.666667,4.333333,5.0,3.666667,4.0,
88631,842,2020-04-01 16:19:02,EN,47,Female,PhD/Doctorate,College degree,Full time employed,United States,no,Denver,Divorced/widowed,3.0,No,Isolated,2.0,3.0,,Program C,No,3.0,3.0,3.0,5.0,3.0,1.0,5.0,5.0,3.0,1.0,2.0,2.0,4.0,7.0,9.0,4.0,3.0,3.0,2.0,8.0,6.0,2.0,4.0,4.0,5.0,5.0,3.0,5.0,5.0,5.0,2.0,3.0,4.0,3.0,3.0,5.0,6.0,6.0,1.0,6.0,4.0,6.0,1.0,5.0,5.0,3.0,4.0,4.0,2.0,4.0,4.0,5.0,4.0,4.0,1.0,2.0,99.0,5.0,4.0,5.0,5.0,6.0,3.0,5.0,4.0,5.0,5.0,99.0,3.0,2.0,4.0,6.0,I feel slightly distressed about not getting out in nature as I am used to. Worried that it will be like France and Spain - forbidden to even take walks. That would be very hard for me!,6.0,5.0,6.0,6.0,6.0,6.0,6.0,6.0,5.0,6.0,5.0,5.0,6.0,3.0,5.0,5.0,1.0,1.0,5.0,4.0,4.0,5.0,4.0,5.0,1.0,5.0,,5.0,5.0,6.0,5.0,6.0,3.0,Being able to go outside is critical for peoples well-being so hope it wont come to laws against that. I wonder if masks would be a good idea. I am Swedish (live in the states) and worry a great deal about how much more relaxed the measures are in Sweden.,2.0,2.666667,2.666667,6.0,5.333333,5.333333,3.333333,5.8
88643,1903,2020-03-31 16:34:48,EN,57,Female,"College degree, bachelor, master",Some College or equivalent,Retired,United States,no,West Terre Haute Indiana,Married/cohabiting,0.0,Yes,Life carries on with minor changes,1.0,0.0,Program A,,No,3.0,3.0,4.0,4.0,3.0,2.0,3.0,2.0,2.0,3.0,2.0,2.0,3.0,7.0,9.0,6.0,9.0,8.0,10.0,10.0,5.0,5.0,5.0,5.0,6.0,6.0,2.0,5.0,6.0,5.0,1.0,5.0,2.0,5.0,4.0,5.0,2.0,1.0,5.0,5.0,6.0,4.0,2.0,5.0,5.0,4.0,4.0,5.0,4.0,5.0,99.0,99.0,2.0,6.0,4.0,1.0,99.0,6.0,2.0,5.0,6.0,6.0,99.0,5.0,2.0,3.0,6.0,2.0,2.0,2.0,6.0,4.0,,6.0,6.0,6.0,6.0,6.0,6.0,6.0,6.0,5.0,6.0,1.0,1.0,6.0,2.0,3.0,3.0,3.0,1.0,5.0,6.0,2.0,2.0,6.0,5.0,5.0,2.0,,1.0,4.0,2.0,2.0,2.0,3.0,,2.9,2.333333,3.666667,1.666667,5.0,5.0,4.0,5.9
88675,80290,2020-04-01 14:18:16,EN,46,Female,"College degree, bachelor, master",College degree,Part time employed,United States,no,Michigan,Married/cohabiting,1.0,No,Isolated,1.0,1.0,,Program C,No,3.0,3.0,5.0,4.0,3.0,2.0,3.0,2.0,5.0,3.0,1.0,1.0,4.0,6.0,9.0,3.0,6.0,7.0,8.0,8.0,1.0,6.0,6.0,6.0,6.0,6.0,0.0,6.0,5.0,5.0,2.0,3.0,5.0,4.0,2.0,6.0,5.0,5.0,2.0,5.0,6.0,5.0,2.0,5.0,5.0,2.0,4.0,5.0,2.0,2.0,4.0,2.0,4.0,2.0,2.0,2.0,5.0,5.0,2.0,99.0,99.0,5.0,2.0,2.0,4.0,2.0,2.0,2.0,4.0,2.0,6.0,2.0,,5.0,5.0,5.0,6.0,6.0,5.0,6.0,6.0,5.0,6.0,1.0,5.0,6.0,2.0,5.0,3.0,4.0,4.0,5.0,5.0,4.0,2.0,4.0,4.0,4.0,2.0,Reading,2.0,4.0,5.0,4.0,4.0,1.0,,3.3,2.0,2.333333,5.0,5.333333,5.0,3.333333,5.5
88800,2570,2020-03-31 16:31:02,SME,64,Female,PhD/Doctorate,College degree,Retired,United States,no,California,Married/cohabiting,0.0,Yes,Isolated,1.0,0.0,Program A,,No,4.0,2.0,4.0,5.0,5.0,2.0,5.0,3.0,2.0,2.0,3.0,2.0,3.0,9.0,9.0,5.0,7.0,7.0,6.0,8.0,5.0,4.0,5.0,5.0,5.0,6.0,3.0,6.0,6.0,6.0,2.0,6.0,5.0,5.0,4.0,5.0,6.0,5.0,2.0,5.0,6.0,5.0,1.0,5.0,6.0,6.0,1.0,5.0,1.0,99.0,6.0,99.0,1.0,4.0,2.0,1.0,99.0,5.0,5.0,6.0,6.0,6.0,99.0,2.0,5.0,5.0,2.0,2.0,6.0,3.0,6.0,6.0,Lo que va a pasar con el trabajo de mis hijos cuando se termine la cuarentena me angustia,6.0,6.0,6.0,6.0,6.0,6.0,6.0,6.0,5.0,6.0,4.0,2.0,6.0,2.0,2.0,5.0,1.0,1.0,5.0,5.0,5.0,3.0,5.0,5.0,6.0,5.0,,6.0,5.0,5.0,5.0,5.0,5.0,La idea de que alguien en mi familia enferme o muera y no poder estar con ellos. El morir sola.,2.2,2.666667,3.666667,5.333333,5.333333,5.666667,5.666667,5.9
88823,822,2020-04-01 16:01:04,EN,75,Female,"Some College, short continuing education or equivalent",Up to 12 years of school,Retired,United States,no,MA,Divorced/widowed,0.0,Yes,Life carries on with minor changes,2.0,0.0,,Program C,No,2.0,2.0,1.0,5.0,4.0,2.0,4.0,4.0,2.0,1.0,3.0,3.0,2.0,8.0,9.0,1.0,2.0,6.0,1.0,8.0,1.0,2.0,4.0,3.0,2.0,3.0,,5.0,5.0,5.0,5.0,4.0,3.0,3.0,2.0,4.0,3.0,2.0,5.0,4.0,6.0,5.0,2.0,5.0,4.0,5.0,5.0,1.0,2.0,5.0,6.0,5.0,2.0,2.0,1.0,4.0,2.0,2.0,4.0,5.0,4.0,3.0,5.0,3.0,3.0,3.0,5.0,5.0,5.0,2.0,4.0,3.0,,,,,,,,,,,,,,,,,,,,,,,,,,,,,,,,,,,,1.7,2.666667,2.666667,2.333333,5.0,4.666667,2.666667,
88986,650,2020-03-31 15:42:42,EN,45,Female,"Some College, short continuing education or equivalent",College degree,Not employed,United States,no,Texas,Divorced/widowed,0.0,Not sure,Isolated,1.0,0.0,,Program D,No,2.0,5.0,5.0,1.0,1.0,4.0,5.0,1.0,3.0,5.0,1.0,1.0,3.0,8.0,10.0,5.0,6.0,6.0,5.0,7.0,5.0,6.0,6.0,6.0,6.0,6.0,1.0,4.0,5.0,5.0,1.0,1.0,6.0,4.0,2.0,3.0,5.0,2.0,4.0,6.0,6.0,6.0,5.0,6.0,4.0,5.0,3.0,6.0,6.0,99.0,99.0,6.0,1.0,1.0,1.0,1.0,99.0,6.0,6.0,6.0,6.0,6.0,99.0,3.0,5.0,1.0,6.0,2.0,3.0,6.0,6.0,5.0,,5.0,5.0,6.0,6.0,5.0,5.0,5.0,5.0,5.0,5.0,2.0,1.0,5.0,2.0,6.0,6.0,5.0,5.0,5.0,6.0,2.0,4.0,5.0,6.0,6.0,3.0,,1.0,6.0,6.0,6.0,6.0,6.0,,4.0,1.666667,3.333333,3.333333,6.0,4.0,5.0,5.2
88991,883,2020-03-31 15:46:23,EN,18,Female,Up to 12 years of school,Some College or equivalent,Student,United States,no,Virginia,Single,0.0,Yes,Isolated,3.0,0.0,,Program C,Not sure,4.0,4.0,5.0,3.0,1.0,3.0,3.0,4.0,5.0,3.0,4.0,3.0,5.0,3.0,7.0,4.0,5.0,5.0,4.0,7.0,3.0,4.0,6.0,5.0,6.0,6.0,3.0,6.0,6.0,6.0,2.0,2.0,6.0,5.0,5.0,4.0,6.0,5.0,3.0,4.0,5.0,5.0,4.0,4.0,4.0,3.0,4.0,4.0,99.0,5.0,99.0,6.0,5.0,6.0,99.0,6.0,99.0,6.0,5.0,6.0,5.0,5.0,5.0,6.0,2.0,6.0,6.0,99.0,5.0,1.0,6.0,99.0,No end in sight- the future is unknown.,6.0,6.0,4.0,5.0,5.0,4.0,5.0,5.0,5.0,5.0,5.0,5.0,5.0,2.0,4.0,6.0,5.0,4.0,6.0,4.0,5.0,4.0,4.0,5.0,2.0,4.0,,5.0,3.0,5.0,2.0,5.0,5.0,"My plans for the future and big life milestones that are now significantly altered. While recognizing how well off I am compared to the majority of the world, the coronavirus has cancelled the rest of senior year and graduation, things the majority of adults in the United States and other parts of the world have gotten to experience. Its crushing for things youve worked hard for to be cancelled by the coronavirus and there is no end in sight so the fear of the unknown and what else will be affected is prominent",3.7,4.0,4.333333,5.0,4.666667,3.666667,3.333333,5.0
89014,677,2020-03-31 15:40:45,BS,57,Male,"College degree, bachelor, master",Up to 12 years of school,Part time employed,United States,yes,,Married/cohabiting,1.0,Not sure,Life carries on with minor changes,1.0,0.0,,Program D,No,2.0,2.0,2.0,2.0,5.0,2.0,5.0,2.0,2.0,1.0,2.0,2.0,2.0,1.0,10.0,1.0,3.0,2.0,2.0,0.0,5.0,1.0,3.0,3.0,4.0,4.0,4.0,6.0,5.0,4.0,3.0,3.0,4.0,2.0,2.0,5.0,4.0,5.0,3.0,5.0,4.0,6.0,2.0,6.0,5.0,5.0,3.0,5.0,3.0,3.0,4.0,2.0,3.0,3.0,4.0,4.0,3.0,3.0,3.0,1.0,2.0,2.0,2.0,3.0,2.0,4.0,4.0,4.0,1.0,1.0,1.0,4.0,,3.0,4.0,4.0,3.0,4.0,4.0,4.0,4.0,4.0,4.0,2.0,4.0,4.0,4.0,4.0,4.0,2.0,4.0,1.0,4.0,4.0,1.0,2.0,4.0,6.0,2.0,,3.0,4.0,4.0,4.0,4.0,2.0,,2.1,2.0,2.0,4.333333,5.0,5.333333,4.666667,3.8
89062,1519,2020-04-01 15:51:32,FR,56,Female,Up to 12 years of school,Up to 12 years of school,Full time employed,United States,yes,Californie,Married/cohabiting,1.0,No,Life carries on with minor changes,,,,,,3.0,2.0,4.0,4.0,4.0,4.0,4.0,4.0,2.0,2.0,2.0,2.0,1.0,5.0,10.0,2.0,5.0,2.0,1.0,4.0,1.0,6.0,6.0,6.0,6.0,6.0,1.0,5.0,5.0,5.0,1.0,2.0,2.0,6.0,5.0,5.0,5.0,4.0,4.0,4.0,6.0,5.0,1.0,4.0,6.0,6.0,2.0,6.0,,,,,,,,,,,,,,,,,,,,,,,,,,,,,,,,,,,,,,,,,,,,,,,,,,,,,,,,,,,,2.5,1.666667,4.333333,4.0,5.0,5.333333,5.666667,
89110,1319,2020-03-31 15:45:15,EN,30,Female,"College degree, bachelor, master",College degree,Not employed,United States,no,Texas,Single,0.0,No,Life carries on with minor changes,4.0,0.0,Program A,,No,3.0,2.0,3.0,4.0,3.0,1.0,4.0,4.0,2.0,2.0,1.0,2.0,2.0,6.0,7.0,0.0,1.0,4.0,1.0,8.0,0.0,6.0,6.0,,6.0,6.0,0.0,5.0,6.0,6.0,1.0,3.0,4.0,3.0,3.0,5.0,4.0,2.0,5.0,5.0,5.0,4.0,2.0,5.0,6.0,5.0,2.0,5.0,2.0,5.0,2.0,4.0,4.0,2.0,4.0,2.0,2.0,3.0,4.0,6.0,6.0,6.0,2.0,1.0,2.0,1.0,1.0,3.0,6.0,6.0,5.0,4.0,,6.0,5.0,6.0,6.0,6.0,6.0,6.0,6.0,6.0,6.0,1.0,6.0,6.0,4.0,4.0,3.0,5.0,5.0,4.0,5.0,5.0,3.0,5.0,5.0,6.0,5.0,,4.0,6.0,5.0,5.0,2.0,2.0,"Applying to jobs has been difficult, as currently public libraries are not hiring. Also, having family members in California and NY has really caused a lot of worry about their health and safety.",2.2,1.666667,2.666667,2.666667,4.666667,5.333333,5.0,5.9
89212,1154,2020-03-31 15:36:33,SME,51,Female,"Some College, short continuing education or equivalent",Some College or equivalent,Full time employed,United States,yes,California,Married/cohabiting,3.0,Yes,Isolated,5.0,1.0,Program B,,Not sure,4.0,2.0,2.0,5.0,4.0,2.0,5.0,3.0,3.0,2.0,2.0,1.0,5.0,8.0,9.0,8.0,10.0,10.0,9.0,10.0,10.0,,5.0,5.0,5.0,5.0,9.0,6.0,6.0,6.0,4.0,6.0,6.0,4.0,2.0,5.0,6.0,6.0,1.0,6.0,5.0,6.0,1.0,6.0,6.0,6.0,1.0,6.0,2.0,6.0,6.0,6.0,6.0,4.0,6.0,4.0,6.0,6.0,6.0,6.0,6.0,6.0,6.0,2.0,1.0,4.0,3.0,6.0,4.0,5.0,2.0,6.0,,6.0,6.0,6.0,6.0,6.0,6.0,6.0,6.0,6.0,6.0,6.0,1.0,6.0,5.0,6.0,6.0,3.0,3.0,5.0,6.0,6.0,6.0,6.0,6.0,6.0,6.0,,6.0,6.0,6.0,6.0,6.0,5.0,,2.2,2.666667,2.666667,6.0,5.666667,6.0,6.0,6.0
89295,1395,2020-03-31 15:35:24,EN,40,Female,"College degree, bachelor, master",College degree,Full time employed,United States,no,Pennsylvania,Single,0.0,Yes,Life carries on with minor changes,0.0,0.0,,Program C,No,5.0,4.0,5.0,2.0,4.0,4.0,3.0,2.0,5.0,4.0,5.0,4.0,5.0,5.0,7.0,1.0,5.0,7.0,3.0,7.0,1.0,6.0,6.0,6.0,6.0,6.0,1.0,4.0,5.0,4.0,3.0,3.0,4.0,4.0,4.0,4.0,3.0,3.0,4.0,5.0,6.0,4.0,2.0,4.0,6.0,4.0,4.0,4.0,2.0,4.0,99.0,2.0,5.0,5.0,3.0,99.0,99.0,6.0,5.0,6.0,6.0,6.0,3.0,4.0,5.0,6.0,5.0,5.0,2.0,2.0,6.0,2.0,,5.0,4.0,4.0,3.0,5.0,4.0,5.0,5.0,4.0,5.0,2.0,4.0,4.0,4.0,4.0,3.0,2.0,2.0,4.0,5.0,4.0,2.0,4.0,4.0,2.0,3.0,,5.0,2.0,2.0,2.0,5.0,2.0,,4.0,4.666667,3.666667,3.0,5.0,5.0,3.666667,4.4
89319,1553,2020-04-01 15:37:06,EN,71,Female,"College degree, bachelor, master",Up to 12 years of school,Retired,United States,no,Arizona,Married/cohabiting,0.0,Yes,Isolated,1.0,0.0,,Program C,No,4.0,2.0,5.0,3.0,1.0,3.0,3.0,1.0,5.0,3.0,2.0,2.0,3.0,6.0,8.0,,,1.0,1.0,6.0,1.0,5.0,5.0,5.0,5.0,5.0,0.0,2.0,6.0,6.0,2.0,1.0,4.0,5.0,4.0,4.0,3.0,3.0,5.0,6.0,6.0,6.0,3.0,5.0,6.0,6.0,2.0,5.0,99.0,99.0,99.0,99.0,6.0,3.0,99.0,3.0,99.0,3.0,6.0,6.0,99.0,5.0,2.0,3.0,2.0,4.0,2.0,2.0,4.0,4.0,6.0,1.0,,6.0,4.0,5.0,6.0,5.0,2.0,6.0,6.0,4.0,6.0,2.0,2.0,5.0,1.0,1.0,4.0,5.0,4.0,4.0,3.0,4.0,6.0,1.0,5.0,2.0,4.0,,5.0,4.0,5.0,6.0,5.0,3.0,Strong distrust of my local and state governments to act in the local populations best interest.,3.8,2.333333,4.0,2.666667,6.0,5.0,5.333333,5.0
89341,1145,2020-03-31 15:29:07,FR,30,Female,PhD/Doctorate,College degree,Full time employed,United States,yes,Illinois,Single,0.0,Yes,Isolated,0.0,0.0,Program A,,No,3.0,3.0,4.0,4.0,3.0,4.0,3.0,3.0,3.0,3.0,3.0,2.0,4.0,5.0,8.0,1.0,7.0,2.0,5.0,10.0,2.0,4.0,6.0,6.0,4.0,5.0,2.0,6.0,5.0,6.0,2.0,4.0,3.0,6.0,6.0,3.0,6.0,6.0,2.0,5.0,6.0,6.0,2.0,3.0,5.0,6.0,5.0,5.0,1.0,5.0,2.0,5.0,2.0,3.0,2.0,1.0,1.0,2.0,3.0,6.0,6.0,6.0,5.0,3.0,2.0,5.0,5.0,4.0,5.0,2.0,5.0,4.0,"Faire face aux comportements des autres quand je dois sortir pour mon travail, mes courses...",6.0,6.0,5.0,6.0,5.0,6.0,6.0,6.0,5.0,6.0,2.0,1.0,6.0,4.0,6.0,2.0,2.0,6.0,6.0,2.0,2.0,4.0,3.0,6.0,1.0,4.0,,4.0,4.0,5.0,5.0,5.0,2.0,Sadapter à ne faire du sport principalement quen intérieur.,3.1,3.0,5.333333,5.666667,5.666667,4.333333,4.333333,5.7
89373,1522,2020-03-31 15:33:32,EN,29,Female,"Some College, short continuing education or equivalent",College degree,Full time employed,United States,no,Washington,Married/cohabiting,0.0,Yes,Isolated,1.0,0.0,,Program D,Not sure,4.0,4.0,4.0,3.0,1.0,3.0,3.0,4.0,4.0,4.0,1.0,4.0,3.0,2.0,8.0,5.0,8.0,9.0,5.0,5.0,2.0,6.0,6.0,6.0,6.0,6.0,0.0,5.0,6.0,6.0,1.0,2.0,4.0,4.0,3.0,4.0,4.0,4.0,4.0,5.0,6.0,5.0,4.0,2.0,6.0,6.0,2.0,6.0,6.0,4.0,99.0,6.0,6.0,4.0,1.0,6.0,99.0,6.0,6.0,6.0,6.0,6.0,2.0,1.0,5.0,1.0,4.0,4.0,4.0,3.0,6.0,2.0,"Not have work or income, which is my current situation",6.0,6.0,4.0,6.0,6.0,6.0,6.0,6.0,6.0,6.0,4.0,4.0,6.0,2.0,6.0,2.0,4.0,4.0,4.0,5.0,5.0,5.0,4.0,4.0,1.0,6.0,"Staying active and cleaning my property, taking stock of our assets for crisis selling.",6.0,4.0,3.0,4.0,2.0,2.0,"As a retail store manager I am now out of work and can only make 1/3rd of my salary on unemployment. Even with my husband working I am not sure how I will financially bounce back from this with previous debt, bad credit, and no income.",3.6,2.666667,3.333333,3.666667,5.333333,3.666667,5.666667,5.8
89378,362,2020-04-01 15:14:31,EN,49,Female,"College degree, bachelor, master",College degree,Self-employed,United States,no,Virginia,Married/cohabiting,2.0,Yes,Isolated,3.0,0.0,Program A,,No,2.0,2.0,5.0,1.0,5.0,1.0,5.0,5.0,2.0,1.0,1.0,2.0,5.0,7.0,10.0,6.0,9.0,10.0,6.0,8.0,3.0,4.0,6.0,4.0,6.0,6.0,2.0,6.0,4.0,5.0,2.0,3.0,5.0,4.0,3.0,6.0,6.0,6.0,1.0,6.0,6.0,5.0,3.0,3.0,5.0,4.0,3.0,6.0,,,,,,,,,,,,,,,,,,,,,,,,,,,,,,,,,,,,,,,,,,,,,,,,,,,,,,,,,,,,2.1,2.666667,2.666667,6.0,5.666667,4.0,4.666667,
89410,1008,2020-03-31 15:22:28,EN,24,Female,PhD/Doctorate,College degree,Student,United States,no,Michigan,Single,0.0,Yes,Life carries on with minor changes,3.0,0.0,Program B,,No,4.0,4.0,5.0,3.0,4.0,2.0,3.0,4.0,5.0,2.0,4.0,4.0,5.0,5.0,7.0,4.0,10.0,8.0,5.0,7.0,5.0,6.0,6.0,6.0,5.0,5.0,4.0,6.0,5.0,6.0,5.0,2.0,5.0,4.0,4.0,4.0,5.0,5.0,3.0,3.0,2.0,3.0,5.0,4.0,4.0,5.0,4.0,5.0,99.0,2.0,99.0,6.0,1.0,5.0,3.0,2.0,99.0,5.0,4.0,6.0,5.0,5.0,6.0,6.0,5.0,6.0,6.0,5.0,5.0,2.0,6.0,2.0,,6.0,6.0,6.0,6.0,6.0,6.0,6.0,6.0,6.0,6.0,2.0,6.0,5.0,5.0,5.0,4.0,4.0,5.0,5.0,2.0,3.0,4.0,5.0,6.0,3.0,5.0,,3.0,4.0,2.0,2.0,4.0,2.0,,3.2,4.333333,3.666667,4.666667,2.666667,3.333333,4.333333,6.0
89424,4025,2020-04-01 16:11:54,EN,56,Female,"College degree, bachelor, master",Some College or equivalent,Full time employed,United States,no,washington,Married/cohabiting,0.0,Yes,Life carries on with minor changes,2.0,0.0,Program A,,No,4.0,3.0,4.0,5.0,3.0,2.0,4.0,4.0,4.0,3.0,2.0,2.0,4.0,4.0,8.0,6.0,3.0,9.0,6.0,9.0,1.0,2.0,2.0,2.0,5.0,5.0,0.0,6.0,5.0,5.0,2.0,5.0,1.0,2.0,2.0,5.0,2.0,2.0,4.0,6.0,6.0,6.0,4.0,5.0,6.0,2.0,2.0,5.0,2.0,99.0,99.0,2.0,5.0,6.0,1.0,2.0,1.0,5.0,2.0,2.0,2.0,1.0,5.0,5.0,4.0,5.0,5.0,2.0,2.0,1.0,6.0,1.0,the possiblity of martial law and further government overreach,6.0,5.0,6.0,6.0,6.0,6.0,6.0,6.0,6.0,5.0,4.0,6.0,6.0,3.0,5.0,6.0,1.0,1.0,5.0,5.0,2.0,2.0,2.0,6.0,6.0,5.0,spending time in nature,4.0,5.0,1.0,3.0,3.0,2.0,I am concerned that our current government is too focused on corporations and businesses and forgets to help the common people. Also concerned that our current federal administration will attempt to cancel federal elections by using the virus as an excuse.,2.8,2.666667,2.0,2.333333,6.0,4.666667,4.0,5.8
89468,19505,2020-03-31 20:26:50,ZH-T,36,Female,PhD/Doctorate,Some College or equivalent,Full time employed,United States,yes,,Single,0.0,No,Life carries on with minor changes,,,Program A,,,2.0,4.0,3.0,4.0,3.0,4.0,4.0,3.0,2.0,2.0,2.0,3.0,3.0,7.0,7.0,7.0,7.0,5.0,4.0,,3.0,3.0,3.0,3.0,4.0,5.0,5.0,5.0,5.0,5.0,2.0,4.0,5.0,4.0,3.0,5.0,5.0,4.0,2.0,3.0,4.0,3.0,4.0,5.0,2.0,4.0,2.0,6.0,2.0,4.0,99.0,4.0,2.0,4.0,2.0,2.0,99.0,4.0,5.0,4.0,4.0,3.0,4.0,4.0,2.0,4.0,4.0,5.0,4.0,3.0,4.0,4.0,,2.0,4.0,4.0,5.0,4.0,5.0,5.0,5.0,4.0,5.0,3.0,5.0,5.0,4.0,5.0,4.0,1.0,1.0,4.0,3.0,5.0,4.0,3.0,4.0,3.0,4.0,,5.0,5.0,6.0,5.0,5.0,5.0,,2.7,2.666667,3.0,4.666667,3.333333,3.333333,5.0,4.3
89475,1788,2020-03-31 15:31:19,FR,39,Male,PhD/Doctorate,College degree,Full time employed,United States,yes,California,Married/cohabiting,2.0,No,Life carries on with minor changes,1.0,2.0,Program A,,No,1.0,2.0,4.0,5.0,4.0,2.0,3.0,5.0,4.0,1.0,2.0,1.0,2.0,7.0,9.0,8.0,9.0,9.0,7.0,5.0,7.0,4.0,3.0,4.0,6.0,6.0,7.0,6.0,6.0,6.0,4.0,5.0,4.0,4.0,4.0,5.0,5.0,3.0,4.0,5.0,5.0,4.0,2.0,4.0,5.0,3.0,2.0,5.0,3.0,5.0,1.0,5.0,2.0,3.0,1.0,2.0,5.0,5.0,2.0,2.0,2.0,5.0,4.0,2.0,4.0,2.0,3.0,3.0,2.0,2.0,4.0,4.0,,6.0,5.0,5.0,6.0,6.0,6.0,6.0,6.0,5.0,5.0,5.0,5.0,4.0,4.0,4.0,5.0,1.0,1.0,2.0,2.0,1.0,4.0,4.0,4.0,1.0,5.0,,6.0,5.0,5.0,5.0,5.0,5.0,,2.1,1.666667,3.333333,3.666667,4.666667,4.666667,4.333333,5.6
89550,835,2020-03-31 15:11:05,EN,36,Male,PhD/Doctorate,College degree,Full time employed,United States,no,California,Married/cohabiting,0.0,No,Isolated,1.0,0.0,,Program D,No,3.0,4.0,5.0,2.0,2.0,2.0,3.0,3.0,5.0,1.0,4.0,1.0,3.0,7.0,9.0,3.0,7.0,7.0,5.0,7.0,5.0,2.0,4.0,2.0,2.0,2.0,7.0,5.0,5.0,5.0,1.0,2.0,1.0,1.0,1.0,6.0,2.0,3.0,5.0,3.0,3.0,1.0,4.0,1.0,4.0,3.0,6.0,5.0,1.0,1.0,99.0,6.0,6.0,6.0,1.0,4.0,99.0,4.0,5.0,1.0,1.0,5.0,1.0,1.0,1.0,3.0,6.0,5.0,1.0,1.0,6.0,4.0,,1.0,1.0,1.0,1.0,1.0,4.0,6.0,1.0,3.0,6.0,4.0,1.0,1.0,1.0,1.0,4.0,1.0,1.0,4.0,1.0,4.0,4.0,6.0,4.0,1.0,4.0,,5.0,4.0,4.0,6.0,6.0,1.0,"Closure of public recreational spaces such as nature and parks have negatively impacted my psychological and physical wellbeing. I have confidence that the economy and the global public health will eventually rebound but not being able to enjoy personal time outdoors (practicing safe social distancing, of course) is my primary frustration. Not being able to eat out at restaurants or easily obtain groceries is almost as frustrating.",3.4,2.666667,1.0,2.333333,2.333333,2.666667,3.0,2.5
89562,1138,2020-03-31 15:15:48,EN,50,Female,"Some College, short continuing education or equivalent",Up to 12 years of school,Part time employed,United States,yes,Hawaii,Divorced/widowed,1.0,Yes,Isolated,1.0,0.0,Program B,,No,2.0,2.0,2.0,5.0,5.0,2.0,4.0,5.0,1.0,1.0,1.0,3.0,3.0,5.0,6.0,0.0,5.0,5.0,1.0,5.0,0.0,6.0,6.0,6.0,6.0,6.0,0.0,6.0,6.0,6.0,2.0,2.0,5.0,3.0,2.0,4.0,6.0,6.0,3.0,6.0,6.0,5.0,1.0,4.0,6.0,5.0,3.0,5.0,6.0,99.0,2.0,4.0,2.0,6.0,99.0,2.0,99.0,5.0,5.0,3.0,2.0,5.0,99.0,3.0,99.0,1.0,2.0,99.0,2.0,1.0,2.0,1.0,,6.0,6.0,5.0,6.0,5.0,4.0,6.0,5.0,4.0,6.0,2.0,5.0,6.0,6.0,6.0,5.0,1.0,1.0,5.0,5.0,5.0,5.0,6.0,6.0,1.0,1.0,,5.0,2.0,2.0,4.0,2.0,3.0,"As soon as I found out two of my friends had coronavirus (one in Italy, one here in Hawaii, where I live), I immediately went into isolation and started writing letters to the authorities, politicians, and the media to implement more drastic measures to prevent the spread of the virus in Hawaii. Not much has been accomplished in these two weeks since I started but some is better than none. Still, very frustrating.",1.5,2.333333,2.666667,5.333333,5.666667,5.333333,4.666667,5.3
89650,700,2020-03-31 15:03:14,EN,28,Female,"College degree, bachelor, master",PhD/Doctorate,Student,United States,no,,Single,0.0,Yes,Isolated,4.0,0.0,,Program D,No,2.0,2.0,4.0,4.0,2.0,2.0,4.0,3.0,3.0,2.0,3.0,1.0,3.0,5.0,9.0,3.0,5.0,7.0,2.0,10.0,0.0,4.0,6.0,4.0,6.0,6.0,0.0,5.0,5.0,4.0,5.0,2.0,4.0,6.0,6.0,2.0,5.0,3.0,5.0,6.0,5.0,6.0,2.0,5.0,5.0,5.0,2.0,6.0,2.0,6.0,99.0,2.0,2.0,6.0,6.0,4.0,99.0,6.0,5.0,4.0,4.0,6.0,6.0,2.0,1.0,5.0,6.0,2.0,3.0,99.0,6.0,4.0,,6.0,6.0,6.0,6.0,6.0,6.0,6.0,6.0,6.0,6.0,2.0,6.0,6.0,6.0,6.0,2.0,2.0,1.0,5.0,5.0,4.0,5.0,6.0,5.0,6.0,5.0,,2.0,5.0,6.0,5.0,5.0,1.0,,2.6,2.333333,5.666667,3.333333,5.666667,5.0,5.333333,6.0
89698,678,2020-03-31 14:59:46,EN,37,Female,"College degree, bachelor, master",College degree,Self-employed,United States,no,Virginia,Married/cohabiting,3.0,Yes,Isolated,3.0,3.0,Program A,,No,5.0,3.0,5.0,2.0,2.0,4.0,3.0,1.0,5.0,3.0,3.0,5.0,5.0,5.0,7.0,0.0,7.0,7.0,2.0,6.0,0.0,4.0,6.0,4.0,6.0,6.0,,5.0,5.0,6.0,5.0,3.0,5.0,3.0,6.0,2.0,6.0,4.0,2.0,6.0,6.0,6.0,5.0,5.0,5.0,2.0,3.0,5.0,6.0,5.0,2.0,6.0,2.0,6.0,5.0,5.0,2.0,6.0,2.0,5.0,5.0,6.0,5.0,6.0,3.0,6.0,6.0,5.0,6.0,4.0,6.0,6.0,,6.0,5.0,2.0,5.0,3.0,3.0,3.0,4.0,5.0,6.0,1.0,6.0,4.0,6.0,4.0,2.0,1.0,1.0,3.0,5.0,3.0,1.0,5.0,5.0,5.0,5.0,,4.0,4.0,4.0,4.0,4.0,1.0,,4.1,4.333333,4.666667,5.0,6.0,4.0,3.666667,4.2
89717,276,2020-04-01 14:52:18,SME,37,Female,"College degree, bachelor, master",College degree,Student,United States,no,,Single,0.0,Yes,Isolated,1.0,0.0,,,,,,,,,,,,,,,,,,,,,,,,,,,,,,,,,,,,,,,,,,,,,,,,,,,,,,,,,,,,,,,,,,,,,,,,,,,,,,,,,,,,,,,,,,,,,,,,,,,,,,,,,,,,,,,,,,,,,,
89725,792,2020-03-31 15:00:29,EN,48,Male,"College degree, bachelor, master",College degree,Self-employed,United States,no,CA,Married/cohabiting,1.0,No,Life carries on with minor changes,1.0,1.0,,Program C,Yes,3.0,4.0,4.0,4.0,3.0,4.0,3.0,3.0,3.0,3.0,3.0,2.0,4.0,7.0,8.0,4.0,7.0,8.0,2.0,10.0,2.0,5.0,6.0,5.0,6.0,6.0,2.0,6.0,6.0,6.0,5.0,5.0,4.0,6.0,4.0,5.0,6.0,5.0,2.0,6.0,6.0,5.0,4.0,4.0,5.0,5.0,4.0,5.0,6.0,5.0,2.0,4.0,2.0,6.0,5.0,4.0,4.0,6.0,2.0,6.0,6.0,4.0,2.0,5.0,4.0,6.0,5.0,6.0,2.0,1.0,6.0,5.0,,5.0,5.0,6.0,6.0,5.0,6.0,6.0,6.0,6.0,5.0,2.0,4.0,6.0,5.0,5.0,3.0,1.0,1.0,5.0,6.0,5.0,5.0,4.0,3.0,6.0,4.0,,4.0,3.0,1.0,,2.0,3.0,,3.2,3.0,4.0,5.333333,5.666667,4.0,4.333333,5.6
89855,708,2020-03-31 14:50:50,EN,60,Female,PhD/Doctorate,PhD/Doctorate,Full time employed,United States,no,Virginia,Single,0.0,No,Life carries on with minor changes,0.0,0.0,,Program D,No,1.0,1.0,2.0,5.0,5.0,1.0,5.0,5.0,1.0,1.0,1.0,3.0,4.0,7.0,9.0,6.0,8.0,8.0,9.0,9.0,9.0,5.0,5.0,5.0,5.0,5.0,2.0,3.0,4.0,5.0,2.0,5.0,4.0,4.0,1.0,6.0,6.0,6.0,2.0,6.0,5.0,6.0,2.0,5.0,4.0,5.0,1.0,6.0,4.0,2.0,1.0,1.0,5.0,4.0,1.0,1.0,1.0,5.0,3.0,4.0,5.0,2.0,3.0,5.0,1.0,5.0,3.0,1.0,4.0,3.0,6.0,3.0,,3.0,4.0,4.0,6.0,6.0,6.0,6.0,6.0,6.0,5.0,1.0,5.0,5.0,4.0,4.0,3.0,1.0,1.0,4.0,3.0,3.0,1.0,4.0,3.0,1.0,1.0,,1.0,5.0,1.0,1.0,5.0,1.0,,1.1,2.666667,2.0,5.666667,5.666667,4.666667,5.666667,5.2
89884,1287,2020-03-31 14:58:53,EN,60,Female,"Some College, short continuing education or equivalent",Some College or equivalent,Full time employed,United States,no,Massachusetts,Divorced/widowed,0.0,Yes,Isolated,0.0,0.0,Program B,,No,3.0,4.0,2.0,4.0,3.0,1.0,4.0,4.0,4.0,1.0,2.0,1.0,2.0,6.0,7.0,5.0,8.0,8.0,8.0,9.0,4.0,4.0,6.0,6.0,5.0,5.0,3.0,5.0,5.0,5.0,2.0,3.0,4.0,4.0,2.0,4.0,2.0,3.0,4.0,4.0,4.0,2.0,4.0,4.0,4.0,4.0,3.0,4.0,4.0,5.0,99.0,4.0,4.0,3.0,99.0,99.0,99.0,5.0,2.0,4.0,4.0,5.0,5.0,3.0,2.0,2.0,2.0,2.0,2.0,3.0,2.0,4.0,,5.0,5.0,5.0,5.0,5.0,5.0,5.0,5.0,5.0,5.0,3.0,5.0,4.0,4.0,4.0,5.0,2.0,1.0,5.0,4.0,4.0,5.0,3.0,5.0,2.0,4.0,,4.0,4.0,4.0,4.0,4.0,4.0,,2.4,1.666667,3.0,2.666667,3.333333,3.666667,4.0,5.0
89958,1134,2020-04-01 14:52:01,EN,29,Female,"College degree, bachelor, master",Up to 9 years of school,Not employed,United States,no,ca,Single,0.0,Yes,Isolated,3.0,0.0,,,,,,,,,,,,,,,,,,,,,,,,,,,,,,,,,,,,,,,,,,,,,,,,,,,,,,,,,,,,,,,,,,,,,,,,,,,,,,,,,,,,,,,,,,,,,,,,,,,,,,,,,,,,,,,,,,,,,,
89979,20966,2020-03-31 20:21:14,EN,62,Female,Up to 12 years of school,Up to 12 years of school,Part time employed,United States,no,New york,Married/cohabiting,0.0,Yes,Life carries on with minor changes,1.0,0.0,Program A,,Yes,3.0,1.0,3.0,5.0,3.0,2.0,3.0,4.0,3.0,2.0,1.0,3.0,3.0,10.0,10.0,10.0,10.0,10.0,10.0,10.0,10.0,5.0,5.0,4.0,4.0,2.0,5.0,5.0,4.0,6.0,5.0,5.0,4.0,5.0,5.0,3.0,5.0,5.0,3.0,5.0,3.0,4.0,4.0,4.0,6.0,4.0,1.0,5.0,6.0,6.0,5.0,6.0,6.0,6.0,4.0,4.0,1.0,6.0,5.0,6.0,6.0,5.0,5.0,5.0,5.0,5.0,6.0,6.0,6.0,1.0,5.0,6.0,,6.0,6.0,6.0,6.0,6.0,5.0,6.0,6.0,6.0,6.0,5.0,5.0,5.0,5.0,4.0,5.0,3.0,4.0,5.0,5.0,5.0,5.0,5.0,5.0,5.0,6.0,,4.0,4.0,5.0,5.0,4.0,5.0,,2.3,2.333333,4.666667,4.666667,4.0,4.333333,5.0,5.9
90044,808,2020-03-31 14:41:07,EN,22,Female,"College degree, bachelor, master",Some College or equivalent,Student,United States,yes,Texas,Single,0.0,No,Life carries on with minor changes,2.0,1.0,,Program C,No,3.0,3.0,4.0,5.0,3.0,2.0,4.0,3.0,2.0,3.0,1.0,2.0,3.0,5.0,8.0,5.0,6.0,8.0,8.0,10.0,5.0,5.0,5.0,5.0,2.0,2.0,4.0,6.0,5.0,6.0,2.0,1.0,4.0,3.0,2.0,5.0,5.0,5.0,3.0,3.0,5.0,5.0,3.0,5.0,5.0,4.0,2.0,5.0,5.0,6.0,6.0,6.0,5.0,3.0,2.0,6.0,6.0,2.0,6.0,4.0,6.0,6.0,3.0,5.0,2.0,2.0,3.0,4.0,4.0,2.0,6.0,6.0,,5.0,5.0,5.0,5.0,5.0,5.0,5.0,5.0,5.0,5.0,4.0,5.0,5.0,3.0,5.0,5.0,2.0,2.0,6.0,5.0,5.0,2.0,6.0,5.0,6.0,5.0,,5.0,5.0,6.0,4.0,3.0,3.0,,2.6,2.0,2.333333,4.666667,4.333333,4.666667,4.666667,5.0
90110,1136,2020-04-01 14:42:49,EN,74,Female,"College degree, bachelor, master",Some College or equivalent,Self-employed,United States,no,Virginia,Divorced/widowed,0.0,Yes,Isolated,0.0,0.0,,Program D,No,2.0,2.0,3.0,5.0,3.0,2.0,2.0,4.0,1.0,1.0,2.0,2.0,3.0,7.0,8.0,5.0,9.0,8.0,8.0,9.0,5.0,4.0,5.0,4.0,6.0,6.0,4.0,6.0,4.0,4.0,2.0,5.0,6.0,2.0,2.0,5.0,3.0,2.0,6.0,4.0,4.0,2.0,2.0,5.0,5.0,5.0,4.0,5.0,6.0,3.0,99.0,6.0,2.0,3.0,1.0,99.0,99.0,6.0,5.0,4.0,2.0,2.0,2.0,5.0,2.0,2.0,2.0,1.0,1.0,1.0,6.0,4.0,,6.0,5.0,4.0,4.0,5.0,6.0,6.0,6.0,5.0,6.0,4.0,5.0,5.0,6.0,5.0,4.0,4.0,2.0,2.0,6.0,6.0,4.0,6.0,5.0,3.0,4.0,,5.0,4.0,2.0,3.0,5.0,4.0,,2.1,2.333333,2.0,2.0,3.333333,5.0,4.333333,5.3
90171,1240,2020-03-31 14:41:41,EN,49,Female,"Some College, short continuing education or equivalent",Some College or equivalent,Self-employed,United States,no,Michigan,Single,0.0,Yes,Isolated,3.0,0.0,,Program D,No,3.0,3.0,5.0,4.0,3.0,2.0,4.0,3.0,2.0,2.0,5.0,3.0,5.0,5.0,8.0,3.0,5.0,5.0,5.0,10.0,4.0,6.0,6.0,4.0,3.0,4.0,2.0,6.0,5.0,6.0,1.0,4.0,4.0,5.0,4.0,4.0,4.0,5.0,4.0,4.0,5.0,3.0,4.0,5.0,5.0,2.0,2.0,5.0,4.0,5.0,99.0,1.0,6.0,4.0,1.0,4.0,99.0,6.0,5.0,4.0,5.0,5.0,6.0,5.0,5.0,6.0,4.0,3.0,5.0,1.0,6.0,1.0,,6.0,4.0,5.0,5.0,6.0,6.0,6.0,4.0,5.0,6.0,5.0,4.0,6.0,1.0,4.0,5.0,1.0,1.0,5.0,4.0,5.0,5.0,3.0,4.0,4.0,4.0,,5.0,4.0,1.0,4.0,5.0,4.0,,2.7,4.333333,4.0,4.0,4.0,4.333333,4.0,5.3
90201,22039,2020-04-01 20:26:35,EN,75,Female,"College degree, bachelor, master",Up to 12 years of school,Retired,United States,no,Indiana,Divorced/widowed,0.0,Yes,Isolated,0.0,0.0,Program A,,No,3.0,3.0,4.0,5.0,4.0,2.0,4.0,4.0,3.0,1.0,2.0,1.0,2.0,8.0,9.0,5.0,9.0,9.0,8.0,10.0,4.0,6.0,6.0,6.0,6.0,6.0,3.0,6.0,6.0,5.0,3.0,3.0,2.0,2.0,4.0,2.0,6.0,5.0,3.0,4.0,6.0,3.0,4.0,5.0,4.0,4.0,1.0,5.0,1.0,2.0,99.0,99.0,99.0,4.0,99.0,99.0,99.0,3.0,5.0,6.0,6.0,6.0,99.0,4.0,99.0,3.0,6.0,99.0,3.0,99.0,2.0,99.0,My  son-in-law and granddaughter who are living in India. I'm very distressed that we can't get in touch with them.,6.0,6.0,6.0,6.0,6.0,5.0,6.0,6.0,5.0,5.0,4.0,2.0,6.0,1.0,6.0,5.0,1.0,1.0,5.0,4.0,6.0,5.0,6.0,6.0,1.0,4.0,,4.0,4.0,4.0,5.0,4.0,3.0,"I miss working out at the gym, both the physical activity and the face to face human interaction. Instead of working out at the gym, I am power walking on my treadmill and working out with resistance bands. I am a resourceful person.",2.3,1.666667,3.666667,5.0,4.333333,4.0,5.0,5.7
90239,568,2020-04-01 14:27:00,SME,59,Female,"Some College, short continuing education or equivalent",Up to 6 years of school,Not employed,United States,yes,Texas,Married/cohabiting,0.0,Yes,Isolated,2.0,0.0,,,,1.0,2.0,3.0,4.0,4.0,2.0,4.0,4.0,3.0,2.0,4.0,3.0,2.0,9.0,9.0,7.0,8.0,8.0,8.0,5.0,8.0,5.0,5.0,5.0,5.0,5.0,7.0,,,,,,,,,,,,,,,,,,,,,,,,,,,,,,,,,,,,,,,,,,,,,,,,,,,,,,,,,,,,,,,,,,,,,,,,,,,,,,,,,2.1,3.0,,,,,,
90393,1080,2020-03-31 14:26:29,EN,65,Female,PhD/Doctorate,Up to 12 years of school,Full time employed,United States,no,New Mexico,Married/cohabiting,0.0,No,Life carries on with minor changes,1.0,0.0,Program A,,No,2.0,2.0,3.0,5.0,3.0,2.0,4.0,4.0,2.0,2.0,1.0,1.0,1.0,7.0,9.0,5.0,6.0,8.0,6.0,9.0,2.0,6.0,6.0,6.0,6.0,6.0,2.0,6.0,5.0,5.0,2.0,5.0,4.0,5.0,2.0,5.0,5.0,5.0,2.0,5.0,6.0,4.0,2.0,5.0,5.0,5.0,2.0,6.0,1.0,6.0,1.0,1.0,4.0,5.0,2.0,2.0,1.0,6.0,3.0,4.0,4.0,6.0,3.0,4.0,2.0,2.0,4.0,2.0,5.0,2.0,3.0,,,6.0,6.0,6.0,6.0,6.0,6.0,6.0,6.0,6.0,6.0,4.0,4.0,6.0,3.0,6.0,5.0,1.0,1.0,4.0,5.0,5.0,2.0,6.0,5.0,2.0,5.0,,5.0,6.0,5.0,5.0,5.0,2.0,"Increased awareness of how amazingly difficult this pandemis is on people world-wide. We know that income inequality exists all around us - but the pandemic has brought it to me, more severely than ever before. The magnitude of human suffering, world-wide, is truly crushing.  And the fact that some people are using a pandemic as a political football is beyond disgraceful  For some, there is little to no regard for human lives and that is beyond one's comprehension.  How dare some companies line up to make buckets of money on this global disaster.   How do they lay their head on the pillow at night - knowing they reacted too late [read D.C.'s avoidance and denial] to lessen the virulence of the pandemic, or that they may make $ off of the situation?   Ahhh, I could go on and on ..",2.1,1.0,3.0,5.0,5.0,5.0,5.333333,6.0
90395,1126,2020-03-31 14:27:11,EN,40,Female,PhD/Doctorate,College degree,Full time employed,United States,no,Idaho,Married/cohabiting,1.0,Yes,Isolated,1.0,1.0,,Program C,No,3.0,3.0,3.0,3.0,2.0,3.0,3.0,3.0,3.0,3.0,3.0,2.0,3.0,5.0,5.0,4.0,5.0,6.0,6.0,6.0,5.0,4.0,5.0,4.0,5.0,5.0,3.0,5.0,4.0,4.0,3.0,4.0,5.0,5.0,5.0,3.0,5.0,3.0,5.0,4.0,4.0,4.0,4.0,3.0,4.0,5.0,4.0,5.0,2.0,5.0,4.0,4.0,3.0,3.0,2.0,2.0,4.0,5.0,3.0,5.0,5.0,5.0,5.0,4.0,4.0,4.0,5.0,5.0,4.0,2.0,5.0,3.0,,5.0,4.0,4.0,5.0,5.0,5.0,5.0,5.0,4.0,5.0,3.0,4.0,4.0,3.0,4.0,3.0,2.0,2.0,3.0,4.0,4.0,4.0,4.0,4.0,2.0,4.0,,4.0,4.0,4.0,3.0,5.0,3.0,,3.1,2.666667,4.666667,3.333333,4.0,3.333333,4.333333,4.7
90632,121,2020-04-01 13:59:00,LT,37,Male,PhD/Doctorate,College degree,Full time employed,United States,yes,,Married/cohabiting,2.0,No,Life carries on with minor changes,1.0,1.0,Program A,,,,,,,,,,,,,,,,,,,,,,,,,,,,,,,,,,,,,,,,,,,,,,,,,,,,,,,,,,,,,,,,,,,,,,,,,,,,,,,,,,,,,,,,,,,,,,,,,,,,,,,,,,,,,,,,,,,,,
90670,818,2020-03-31 14:08:50,EN,41,Female,"College degree, bachelor, master",College degree,Full time employed,United States,yes,Michigan,Single,0.0,No,Isolated,0.0,0.0,Program A,,No,2.0,4.0,4.0,3.0,2.0,2.0,3.0,2.0,4.0,3.0,4.0,4.0,4.0,6.0,9.0,4.0,7.0,8.0,4.0,9.0,1.0,5.0,5.0,5.0,5.0,5.0,0.0,5.0,4.0,3.0,4.0,5.0,4.0,4.0,3.0,5.0,6.0,5.0,4.0,4.0,5.0,2.0,2.0,5.0,5.0,5.0,2.0,5.0,5.0,4.0,99.0,6.0,5.0,6.0,99.0,99.0,99.0,6.0,5.0,5.0,4.0,5.0,99.0,5.0,4.0,6.0,5.0,5.0,5.0,3.0,6.0,99.0,"Im sad, scared & lonely. The lack of physical touch is overwhelming. Im not usually a big hugger but I miss that more than I thought.",6.0,6.0,6.0,6.0,6.0,6.0,6.0,6.0,6.0,6.0,1.0,6.0,5.0,4.0,4.0,6.0,1.0,6.0,5.0,4.0,4.0,3.0,4.0,4.0,1.0,4.0,,3.0,4.0,3.0,4.0,4.0,4.0,,3.3,4.0,3.0,4.666667,3.666667,5.0,5.0,6.0
90695,1036,2020-03-31 14:11:16,EN,31,Female,"College degree, bachelor, master",Some College or equivalent,Full time employed,United States,no,Nevada,Single,0.0,Yes,Life carries on with minor changes,1.0,0.0,,Program D,Yes,3.0,1.0,2.0,5.0,3.0,1.0,5.0,5.0,2.0,1.0,1.0,2.0,3.0,6.0,8.0,6.0,7.0,6.0,7.0,6.0,6.0,5.0,5.0,5.0,6.0,5.0,4.0,6.0,5.0,5.0,6.0,4.0,6.0,2.0,2.0,6.0,5.0,4.0,4.0,6.0,4.0,5.0,1.0,5.0,5.0,4.0,1.0,5.0,5.0,4.0,99.0,6.0,5.0,4.0,99.0,1.0,99.0,5.0,5.0,5.0,4.0,5.0,2.0,3.0,6.0,2.0,3.0,5.0,5.0,2.0,5.0,6.0,,6.0,6.0,5.0,6.0,6.0,5.0,5.0,6.0,5.0,5.0,5.0,5.0,5.0,5.0,5.0,4.0,2.0,2.0,4.0,6.0,5.0,5.0,6.0,6.0,3.0,5.0,,5.0,6.0,5.0,4.0,4.0,2.0,,1.6,2.0,1.666667,4.0,5.0,5.333333,5.0,5.5
90726,1990,2020-04-01 14:26:21,EN,20,Female,"Some College, short continuing education or equivalent",Some College or equivalent,Student,United States,no,Texas,Single,0.0,Yes,Life carries on with minor changes,4.0,1.0,,Program D,No,5.0,4.0,4.0,3.0,3.0,4.0,4.0,2.0,4.0,5.0,5.0,2.0,3.0,6.0,8.0,4.0,6.0,6.0,7.0,7.0,4.0,4.0,5.0,4.0,5.0,6.0,3.0,4.0,3.0,4.0,2.0,3.0,4.0,5.0,6.0,3.0,4.0,1.0,6.0,2.0,5.0,4.0,4.0,4.0,5.0,4.0,4.0,3.0,5.0,6.0,99.0,5.0,6.0,5.0,3.0,5.0,99.0,6.0,5.0,6.0,5.0,4.0,6.0,3.0,4.0,3.0,6.0,5.0,6.0,3.0,6.0,4.0,,5.0,5.0,4.0,4.0,5.0,4.0,5.0,5.0,3.0,4.0,4.0,5.0,5.0,3.0,5.0,5.0,5.0,4.0,4.0,5.0,4.0,4.0,5.0,5.0,3.0,3.0,,5.0,5.0,4.0,5.0,4.0,5.0,,3.8,3.333333,5.0,2.0,3.666667,4.0,3.333333,4.4
90750,1018,2020-03-31 14:09:29,EN,27,Female,"College degree, bachelor, master",Up to 9 years of school,Not employed,United States,no,Texas,Married/cohabiting,0.0,Yes,Isolated,0.0,0.0,,Program C,Yes,3.0,3.0,5.0,4.0,3.0,3.0,3.0,3.0,5.0,2.0,5.0,5.0,5.0,5.0,9.0,3.0,6.0,6.0,4.0,7.0,4.0,6.0,1.0,1.0,1.0,1.0,3.0,4.0,6.0,6.0,6.0,2.0,5.0,6.0,6.0,5.0,4.0,2.0,5.0,5.0,5.0,6.0,4.0,4.0,4.0,4.0,2.0,5.0,1.0,99.0,99.0,6.0,6.0,2.0,5.0,6.0,99.0,4.0,5.0,6.0,6.0,1.0,99.0,5.0,5.0,6.0,6.0,4.0,3.0,1.0,3.0,1.0,,4.0,5.0,3.0,3.0,5.0,5.0,5.0,5.0,5.0,5.0,,4.0,,,,1.0,1.0,1.0,2.0,,4.0,1.0,,6.0,,,,4.0,5.0,5.0,4.0,5.0,1.0,,3.2,5.0,4.666667,2.666667,5.333333,3.666667,4.666667,4.5
90788,2278,2020-03-31 14:28:52,EN,18,Other/would rather not say,Up to 12 years of school,Some College or equivalent,Not employed,United States,no,Georgia,Single,0.0,Yes,Isolated,3.0,0.0,,Program D,No,3.0,5.0,4.0,3.0,3.0,4.0,3.0,3.0,4.0,4.0,2.0,2.0,2.0,6.0,8.0,1.0,,,,4.0,1.0,4.0,5.0,5.0,6.0,6.0,0.0,5.0,4.0,4.0,2.0,3.0,2.0,4.0,4.0,4.0,4.0,4.0,4.0,4.0,5.0,5.0,4.0,4.0,4.0,3.0,3.0,5.0,99.0,6.0,99.0,6.0,3.0,4.0,99.0,2.0,99.0,5.0,5.0,5.0,5.0,5.0,2.0,2.0,2.0,4.0,2.0,4.0,4.0,2.0,6.0,5.0,,5.0,5.0,4.0,5.0,4.0,5.0,5.0,5.0,5.0,5.0,4.0,4.0,5.0,2.0,,4.0,5.0,5.0,5.0,4.0,4.0,4.0,3.0,5.0,5.0,2.0,,4.0,3.0,5.0,3.0,3.0,2.0,I have concerns about whether or not me and people graduating this year will be taken seriously in academic circles and whether or not our test scores will be considered less important,3.6,2.0,3.666667,3.666667,4.666667,3.666667,4.0,4.8
90794,488,2020-03-31 13:58:56,EN,64,Male,"College degree, bachelor, master",Up to 12 years of school,Full time employed,United States,no,Michigan,Married/cohabiting,4.0,Yes,Isolated,1.0,0.0,,Program C,No,3.0,3.0,4.0,3.0,3.0,2.0,3.0,3.0,3.0,2.0,4.0,2.0,4.0,6.0,9.0,1.0,5.0,8.0,3.0,7.0,0.0,5.0,6.0,5.0,6.0,6.0,0.0,4.0,4.0,4.0,2.0,3.0,5.0,4.0,4.0,4.0,4.0,3.0,5.0,4.0,5.0,5.0,5.0,4.0,4.0,4.0,4.0,5.0,5.0,5.0,5.0,5.0,5.0,5.0,1.0,4.0,99.0,5.0,5.0,6.0,6.0,6.0,3.0,2.0,4.0,6.0,5.0,5.0,2.0,3.0,5.0,2.0,,5.0,5.0,3.0,5.0,4.0,6.0,4.0,6.0,4.0,5.0,,2.0,4.0,1.0,2.0,3.0,,1.0,3.0,2.0,2.0,3.0,4.0,3.0,1.0,2.0,,1.0,2.0,2.0,2.0,3.0,2.0,,2.9,3.333333,3.666667,3.0,4.666667,3.333333,4.0,4.7
90945,555,2020-04-01 13:49:11,EN,33,Female,"College degree, bachelor, master",College degree,Full time employed,United States,no,Kentucky,Married/cohabiting,0.0,Yes,Life carries on with minor changes,1.0,0.0,Program A,,No,2.0,2.0,3.0,4.0,4.0,2.0,4.0,4.0,2.0,1.0,1.0,2.0,2.0,7.0,10.0,6.0,6.0,8.0,6.0,7.0,5.0,4.0,5.0,5.0,5.0,6.0,3.0,5.0,4.0,4.0,2.0,3.0,2.0,3.0,2.0,5.0,5.0,6.0,2.0,5.0,5.0,5.0,3.0,4.0,5.0,6.0,2.0,6.0,1.0,4.0,99.0,99.0,2.0,5.0,99.0,1.0,99.0,5.0,2.0,4.0,4.0,5.0,4.0,5.0,1.0,2.0,5.0,2.0,2.0,1.0,6.0,5.0,,,,,,,,,,,,,,,,,,,,,,,,,,,,,,,,,,,,2.0,1.666667,2.333333,5.333333,5.0,4.333333,5.666667,
91002,684,2020-03-31 13:46:25,EN,39,Female,"College degree, bachelor, master",College degree,Part time employed,United States,no,Michigan,Married/cohabiting,4.0,Yes,Life carries on with minor changes,1.0,2.0,,Program D,No,2.0,3.0,3.0,3.0,2.0,2.0,3.0,3.0,3.0,3.0,2.0,1.0,3.0,6.0,8.0,2.0,2.0,2.0,5.0,2.0,2.0,6.0,6.0,6.0,6.0,5.0,,5.0,5.0,4.0,3.0,3.0,3.0,5.0,6.0,4.0,4.0,4.0,2.0,4.0,5.0,4.0,3.0,5.0,5.0,4.0,4.0,5.0,6.0,99.0,5.0,4.0,4.0,5.0,99.0,4.0,6.0,6.0,4.0,6.0,6.0,99.0,99.0,3.0,3.0,3.0,5.0,2.0,3.0,3.0,6.0,99.0,,6.0,5.0,5.0,5.0,6.0,5.0,6.0,6.0,5.0,5.0,2.0,6.0,5.0,2.0,4.0,6.0,2.0,1.0,6.0,4.0,3.0,4.0,3.0,4.0,5.0,3.0,,4.0,5.0,3.0,5.0,6.0,3.0,,2.9,2.0,4.666667,4.333333,4.333333,4.666667,4.0,5.4
91028,4113,2020-03-31 14:41:37,LT,35,Male,"College degree, bachelor, master",College degree,Not employed,United States,yes,Florida,Married/cohabiting,0.0,No,Life carries on with minor changes,2.0,0.0,Program A,,No,2.0,1.0,2.0,4.0,4.0,1.0,4.0,4.0,2.0,1.0,1.0,1.0,1.0,3.0,7.0,5.0,7.0,6.0,8.0,5.0,8.0,2.0,4.0,3.0,3.0,2.0,5.0,5.0,5.0,5.0,2.0,5.0,4.0,2.0,2.0,4.0,2.0,2.0,5.0,2.0,4.0,2.0,2.0,2.0,3.0,5.0,2.0,5.0,2.0,99.0,99.0,3.0,2.0,2.0,1.0,3.0,99.0,3.0,2.0,2.0,2.0,2.0,99.0,1.0,2.0,2.0,2.0,3.0,2.0,2.0,2.0,2.0,,5.0,4.0,4.0,5.0,5.0,4.0,5.0,5.0,4.0,5.0,3.0,2.0,5.0,2.0,2.0,2.0,5.0,5.0,5.0,2.0,3.0,4.0,2.0,5.0,1.0,3.0,,2.0,1.0,2.0,2.0,2.0,2.0,,1.7,1.0,2.333333,2.0,2.666667,3.333333,5.0,4.6
91076,865,2020-03-31 13:44:33,EN,35,Female,"College degree, bachelor, master",College degree,Self-employed,United States,no,Ca,Married/cohabiting,2.0,Yes,Isolated,1.0,2.0,,Program C,Not sure,3.0,3.0,4.0,5.0,2.0,4.0,1.0,3.0,3.0,2.0,3.0,2.0,4.0,5.0,9.0,0.0,4.0,7.0,5.0,8.0,0.0,1.0,2.0,5.0,5.0,6.0,0.0,6.0,5.0,5.0,6.0,4.0,5.0,6.0,5.0,5.0,5.0,5.0,5.0,4.0,3.0,5.0,2.0,3.0,6.0,4.0,4.0,4.0,5.0,5.0,5.0,1.0,4.0,4.0,1.0,5.0,6.0,5.0,5.0,4.0,1.0,4.0,5.0,4.0,1.0,4.0,5.0,6.0,,1.0,4.0,2.0,,5.0,1.0,5.0,5.0,5.0,4.0,6.0,6.0,4.0,5.0,4.0,3.0,5.0,3.0,4.0,3.0,1.0,1.0,5.0,4.0,4.0,3.0,4.0,6.0,1.0,3.0,,5.0,5.0,5.0,3.0,6.0,2.0,Spending not enough alone time away from family since everyone is home.,3.2,3.0,4.333333,4.0,4.0,4.666667,3.666667,4.6
91090,1546,2020-03-31 13:55:13,ZH-T,28,Female,"College degree, bachelor, master",Some College or equivalent,Part time employed,United States,no,Arcadia,Other or would rather not say,0.0,Yes,Life carries on as usual,0.0,0.0,,Program C,,4.0,2.0,3.0,4.0,2.0,2.0,4.0,3.0,2.0,2.0,3.0,1.0,3.0,5.0,7.0,6.0,7.0,4.0,5.0,7.0,2.0,5.0,6.0,6.0,6.0,6.0,0.0,5.0,4.0,5.0,5.0,5.0,5.0,4.0,5.0,6.0,6.0,6.0,4.0,4.0,6.0,4.0,2.0,6.0,6.0,6.0,5.0,2.0,4.0,99.0,99.0,5.0,6.0,6.0,99.0,5.0,99.0,5.0,4.0,4.0,6.0,6.0,6.0,6.0,3.0,4.0,4.0,6.0,4.0,5.0,4.0,6.0,,6.0,1.0,6.0,4.0,6.0,4.0,6.0,6.0,5.0,6.0,4.0,5.0,6.0,2.0,5.0,5.0,1.0,5.0,5.0,6.0,6.0,4.0,5.0,5.0,1.0,5.0,,5.0,6.0,5.0,6.0,6.0,6.0,,2.6,2.333333,3.333333,5.0,4.666667,5.666667,3.333333,5.0
91097,979,2020-03-31 13:45:22,EN,25,Female,"College degree, bachelor, master",College degree,Full time employed,United States,no,Maryland,Married/cohabiting,0.0,No,Life carries on with minor changes,2.0,0.0,,Program D,No,2.0,4.0,3.0,4.0,4.0,3.0,5.0,3.0,3.0,2.0,1.0,2.0,,7.0,9.0,2.0,2.0,7.0,1.0,9.0,0.0,3.0,4.0,,6.0,6.0,0.0,6.0,6.0,6.0,1.0,3.0,2.0,4.0,3.0,4.0,5.0,4.0,3.0,4.0,5.0,4.0,3.0,6.0,6.0,3.0,4.0,5.0,2.0,1.0,1.0,1.0,5.0,1.0,1.0,2.0,1.0,1.0,4.0,4.0,4.0,5.0,3.0,1.0,5.0,1.0,1.0,4.0,2.0,2.0,1.0,4.0,,,6.0,6.0,6.0,6.0,6.0,,6.0,6.0,6.0,2.0,4.0,3.0,1.0,5.0,3.0,4.0,5.0,,2.0,4.0,4.0,4.0,5.0,5.0,1.0,,4.0,4.0,4.0,1.0,4.0,2.0,,2.5,1.5,3.333333,4.333333,4.333333,5.333333,3.666667,6.0
91113,634,2020-03-31 13:38:33,EN,53,Female,"Some College, short continuing education or equivalent",Up to 12 years of school,Full time employed,United States,no,Michigan,Married/cohabiting,0.0,Yes,Isolated,1.0,0.0,Program A,,No,3.0,3.0,2.0,5.0,3.0,1.0,5.0,3.0,4.0,1.0,1.0,2.0,5.0,7.0,9.0,0.0,6.0,9.0,1.0,8.0,1.0,6.0,6.0,6.0,6.0,6.0,0.0,6.0,5.0,5.0,1.0,3.0,1.0,3.0,2.0,6.0,4.0,4.0,4.0,6.0,6.0,4.0,1.0,6.0,6.0,4.0,2.0,6.0,2.0,4.0,99.0,2.0,4.0,5.0,2.0,2.0,99.0,5.0,2.0,4.0,4.0,5.0,3.0,2.0,2.0,99.0,2.0,2.0,4.0,3.0,4.0,4.0,,6.0,6.0,6.0,6.0,6.0,6.0,6.0,6.0,5.0,6.0,4.0,1.0,6.0,1.0,5.0,4.0,1.0,1.0,4.0,4.0,4.0,5.0,5.0,5.0,4.0,4.0,,5.0,5.0,5.0,2.0,1.0,2.0,,2.2,2.666667,2.0,3.666667,5.333333,6.0,5.0,5.9
91122,1927,2020-03-31 13:59:25,SME,59,Female,Up to 9 years of school,Up to 9 years of school,Self-employed,United States,yes,CA,Married/cohabiting,0.0,Yes,Life carries on with minor changes,5.0,0.0,,Program D,No,4.0,3.0,3.0,4.0,4.0,1.0,4.0,2.0,3.0,3.0,3.0,1.0,3.0,3.0,5.0,1.0,5.0,7.0,7.0,5.0,1.0,6.0,6.0,6.0,6.0,,0.0,5.0,6.0,6.0,2.0,6.0,1.0,4.0,1.0,6.0,6.0,5.0,6.0,5.0,5.0,6.0,1.0,4.0,5.0,5.0,1.0,5.0,6.0,5.0,99.0,6.0,5.0,5.0,5.0,3.0,99.0,6.0,5.0,5.0,5.0,6.0,4.0,4.0,99.0,5.0,5.0,5.0,6.0,6.0,5.0,5.0,"Poder generar mi ingreso laboral, que ya está parado desde hace 3 semanas",6.0,5.0,5.0,5.0,5.0,5.0,5.0,6.0,5.0,5.0,5.0,6.0,6.0,5.0,5.0,5.0,4.0,1.0,5.0,6.0,5.0,5.0,6.0,5.0,6.0,6.0,,5.0,4.0,4.0,5.0,5.0,2.0,Que nuestros gobiernos fueran transparentes con la información y pusieran más empeño en buscar una solución pronta al alcance de todas las personas,2.7,2.333333,2.0,4.0,5.333333,5.0,5.333333,5.2
91130,955,2020-04-01 13:42:43,EN,24,Female,"College degree, bachelor, master",Up to 12 years of school,Part time employed,United States,no,Florida,Single,0.0,Yes,Isolated,3.0,0.0,,Program D,No,3.0,3.0,5.0,2.0,3.0,4.0,2.0,3.0,3.0,3.0,2.0,2.0,3.0,4.0,9.0,3.0,5.0,4.0,3.0,7.0,3.0,3.0,6.0,4.0,6.0,6.0,3.0,4.0,5.0,5.0,1.0,1.0,1.0,6.0,6.0,2.0,4.0,3.0,4.0,6.0,6.0,6.0,4.0,5.0,5.0,6.0,4.0,4.0,3.0,1.0,99.0,3.0,6.0,3.0,3.0,4.0,99.0,5.0,5.0,6.0,4.0,6.0,1.0,2.0,3.0,2.0,1.0,5.0,6.0,4.0,5.0,1.0,,6.0,4.0,4.0,5.0,5.0,5.0,5.0,6.0,6.0,5.0,5.0,4.0,4.0,4.0,3.0,4.0,6.0,6.0,4.0,5.0,2.0,5.0,6.0,6.0,5.0,5.0,,5.0,5.0,3.0,4.0,2.0,2.0,,3.5,2.333333,5.666667,3.333333,6.0,4.333333,4.333333,5.1
91134,1393,2020-03-31 13:49:49,EN,34,Female,"College degree, bachelor, master",Up to 12 years of school,Full time employed,United States,yes,,Married/cohabiting,2.0,No,Isolated,1.0,2.0,,Program D,No,2.0,2.0,3.0,5.0,4.0,2.0,4.0,4.0,2.0,2.0,1.0,2.0,3.0,7.0,9.0,5.0,5.0,5.0,3.0,7.0,3.0,2.0,2.0,2.0,5.0,6.0,2.0,6.0,5.0,6.0,2.0,3.0,2.0,4.0,4.0,5.0,6.0,5.0,2.0,5.0,6.0,4.0,2.0,5.0,5.0,5.0,2.0,6.0,2.0,2.0,1.0,5.0,1.0,3.0,1.0,1.0,3.0,5.0,3.0,6.0,5.0,5.0,2.0,1.0,2.0,2.0,3.0,2.0,5.0,1.0,5.0,4.0,,6.0,6.0,6.0,6.0,6.0,5.0,5.0,6.0,5.0,5.0,2.0,5.0,6.0,2.0,5.0,5.0,1.0,1.0,5.0,4.0,2.0,4.0,5.0,5.0,4.0,4.0,,2.0,5.0,5.0,5.0,4.0,4.0,"Reconnecting via phone or social media or email with old friends anf families, having additional time for this",2.0,2.0,3.333333,5.333333,5.0,5.0,5.333333,5.6
91278,939,2020-04-01 13:31:47,EN,62,Female,"College degree, bachelor, master",Some College or equivalent,Self-employed,United States,no,Florida,Divorced/widowed,0.0,Yes,Isolated,0.0,0.0,Program B,,No,2.0,2.0,2.0,1.0,2.0,1.0,5.0,2.0,2.0,2.0,3.0,1.0,3.0,8.0,8.0,7.0,10.0,10.0,4.0,8.0,4.0,5.0,6.0,5.0,5.0,5.0,4.0,6.0,6.0,6.0,5.0,5.0,4.0,5.0,1.0,5.0,4.0,5.0,4.0,4.0,4.0,1.0,1.0,4.0,5.0,6.0,1.0,5.0,6.0,99.0,99.0,6.0,6.0,5.0,1.0,99.0,99.0,6.0,5.0,6.0,6.0,6.0,99.0,4.0,1.0,4.0,4.0,5.0,4.0,5.0,6.0,5.0,,,,,,,,,,,,,,,,,,,,,,,,,,,,,,,,,,,,2.5,2.333333,2.666667,4.0,3.0,5.0,5.666667,
91289,757,2020-03-31 13:28:06,EN,51,Male,"College degree, bachelor, master",College degree,Full time employed,United States,no,Michigan,Married/cohabiting,3.0,Yes,Life carries on with minor changes,3.0,0.0,Program B,,Not sure,3.0,3.0,4.0,4.0,3.0,3.0,4.0,3.0,4.0,3.0,2.0,1.0,3.0,5.0,10.0,0.0,4.0,4.0,2.0,6.0,0.0,6.0,6.0,6.0,6.0,6.0,1.0,5.0,5.0,5.0,2.0,4.0,5.0,5.0,4.0,5.0,5.0,5.0,4.0,5.0,5.0,5.0,4.0,5.0,5.0,5.0,2.0,5.0,6.0,6.0,6.0,5.0,5.0,6.0,4.0,2.0,2.0,6.0,5.0,5.0,6.0,5.0,6.0,6.0,5.0,2.0,5.0,5.0,1.0,5.0,6.0,4.0,,5.0,5.0,6.0,6.0,6.0,6.0,6.0,5.0,6.0,6.0,4.0,6.0,5.0,5.0,5.0,5.0,2.0,2.0,6.0,3.0,5.0,5.0,5.0,5.0,3.0,4.0,,1.0,5.0,5.0,5.0,5.0,4.0,,3.0,2.0,3.666667,4.333333,5.0,4.333333,5.0,5.7
91335,1090,2020-03-31 13:31:15,EN,56,Female,Up to 12 years of school,Some College or equivalent,Full time employed,United States,no,Texas,Married/cohabiting,1.0,Yes,Life carries on with minor changes,4.0,0.0,,Program D,No,3.0,3.0,5.0,3.0,3.0,1.0,2.0,3.0,5.0,3.0,1.0,1.0,5.0,3.0,8.0,1.0,2.0,2.0,2.0,2.0,1.0,6.0,6.0,6.0,5.0,,0.0,6.0,6.0,6.0,6.0,1.0,2.0,6.0,6.0,1.0,6.0,6.0,5.0,4.0,6.0,4.0,5.0,6.0,6.0,5.0,5.0,6.0,6.0,6.0,99.0,6.0,6.0,6.0,6.0,5.0,99.0,6.0,6.0,6.0,6.0,6.0,6.0,6.0,1.0,6.0,6.0,6.0,6.0,1.0,6.0,6.0,,5.0,6.0,5.0,5.0,6.0,5.0,6.0,6.0,6.0,6.0,5.0,6.0,6.0,5.0,5.0,6.0,1.0,1.0,6.0,5.0,5.0,5.0,5.0,6.0,6.0,5.0,,6.0,6.0,6.0,6.0,6.0,6.0,,3.3,2.333333,6.0,4.666667,4.666667,4.666667,4.333333,5.6
91380,712,2020-03-31 13:22:02,EN,36,Female,"College degree, bachelor, master",College degree,Full time employed,United States,no,MI,Married/cohabiting,1.0,Yes,Isolated,1.0,1.0,Program A,,No,3.0,3.0,4.0,4.0,3.0,3.0,3.0,3.0,3.0,2.0,3.0,3.0,5.0,7.0,10.0,6.0,6.0,9.0,3.0,10.0,1.0,5.0,6.0,6.0,5.0,5.0,0.0,6.0,6.0,6.0,4.0,4.0,6.0,5.0,5.0,4.0,6.0,5.0,2.0,5.0,6.0,5.0,2.0,5.0,5.0,6.0,3.0,5.0,1.0,6.0,6.0,5.0,3.0,4.0,1.0,3.0,6.0,3.0,6.0,6.0,6.0,5.0,4.0,3.0,4.0,4.0,6.0,4.0,5.0,1.0,4.0,1.0,,6.0,5.0,5.0,5.0,6.0,5.0,5.0,6.0,5.0,6.0,4.0,6.0,5.0,6.0,6.0,5.0,1.0,1.0,4.0,5.0,6.0,3.0,4.0,4.0,1.0,5.0,,2.0,6.0,6.0,3.0,4.0,3.0,,2.9,3.666667,4.333333,5.333333,5.333333,5.0,5.0,5.4
91405,1746,2020-03-31 13:37:12,SME,69,Female,"College degree, bachelor, master",Some College or equivalent,Retired,United States,yes,Buenos Aires,Divorced/widowed,2.0,No,Isolated,1.0,0.0,Program B,,No,1.0,1.0,3.0,5.0,3.0,4.0,5.0,5.0,1.0,1.0,,3.0,3.0,5.0,8.0,6.0,9.0,6.0,2.0,8.0,8.0,5.0,5.0,5.0,5.0,5.0,8.0,6.0,5.0,6.0,1.0,5.0,5.0,5.0,4.0,5.0,5.0,5.0,1.0,5.0,5.0,5.0,1.0,5.0,6.0,5.0,1.0,5.0,99.0,1.0,,1.0,2.0,,1.0,3.0,1.0,5.0,5.0,5.0,3.0,,4.0,99.0,99.0,3.0,2.0,4.0,2.0,5.0,4.0,,,,5.0,5.0,5.0,5.0,5.0,5.0,,,,3.0,,5.0,1.0,5.0,5.0,2.0,3.0,,,,5.0,5.0,5.0,4.0,5.0,,5.0,6.0,5.0,5.0,5.0,6.0,,1.7,3.0,3.666667,5.333333,5.0,5.666667,5.333333,5.0
91417,1201,2020-03-31 13:27:25,LT,43,Male,"College degree, bachelor, master",College degree,Self-employed,United States,yes,Luiziana,Married/cohabiting,2.0,No,Isolated,1.0,1.0,,Program D,No,3.0,3.0,3.0,3.0,2.0,3.0,4.0,3.0,3.0,3.0,3.0,2.0,4.0,6.0,7.0,4.0,5.0,4.0,3.0,8.0,5.0,5.0,5.0,5.0,5.0,5.0,4.0,5.0,5.0,5.0,3.0,4.0,3.0,4.0,4.0,4.0,4.0,3.0,3.0,5.0,5.0,4.0,4.0,4.0,3.0,4.0,3.0,5.0,4.0,4.0,4.0,3.0,5.0,4.0,3.0,3.0,4.0,5.0,3.0,6.0,5.0,6.0,3.0,4.0,3.0,3.0,4.0,3.0,4.0,3.0,5.0,5.0,,4.0,5.0,5.0,5.0,5.0,5.0,5.0,5.0,5.0,5.0,4.0,6.0,4.0,2.0,4.0,4.0,1.0,1.0,4.0,5.0,3.0,5.0,4.0,5.0,5.0,5.0,,5.0,5.0,5.0,4.0,4.0,4.0,,3.0,3.0,3.666667,3.666667,4.666667,3.333333,4.333333,4.9
91457,1214,2020-03-31 13:25:31,EN,30,Female,"College degree, bachelor, master",College degree,Full time employed,United States,yes,Arizona,Single,0.0,Yes,Isolated,1.0,0.0,Program B,,Not sure,5.0,4.0,5.0,3.0,2.0,3.0,4.0,2.0,4.0,3.0,5.0,5.0,3.0,2.0,8.0,3.0,1.0,4.0,3.0,3.0,1.0,6.0,6.0,5.0,6.0,6.0,0.0,6.0,6.0,6.0,4.0,2.0,2.0,4.0,3.0,4.0,6.0,5.0,3.0,4.0,5.0,6.0,2.0,4.0,5.0,4.0,4.0,4.0,6.0,2.0,99.0,6.0,4.0,6.0,2.0,2.0,99.0,6.0,2.0,6.0,6.0,6.0,1.0,5.0,1.0,6.0,6.0,1.0,2.0,2.0,6.0,6.0,,4.0,5.0,5.0,5.0,6.0,5.0,5.0,6.0,4.0,5.0,2.0,4.0,6.0,3.0,5.0,4.0,4.0,4.0,4.0,4.0,3.0,3.0,4.0,4.0,5.0,4.0,"I dont have face to face interactions, all my family and friends live in a different country",1.0,4.0,4.0,3.0,3.0,2.0,"All my family and friends are in a different country. I have to constantly worry not only by whats happening here but also over there. The activities that I enjoy to relax from work are all closed, but also I worry about my job. Wonderful times all around.",3.7,4.333333,3.333333,5.0,5.0,4.666667,3.666667,5.0
91500,268,2020-04-01 13:06:41,EN,33,Male,"College degree, bachelor, master",College degree,Full time employed,United States,no,TN,Single,0.0,Yes,Life carries on with minor changes,2.0,0.0,,Program D,No,3.0,2.0,3.0,5.0,3.0,1.0,4.0,4.0,3.0,2.0,2.0,3.0,3.0,5.0,6.0,6.0,7.0,7.0,7.0,7.0,5.0,5.0,5.0,4.0,6.0,5.0,4.0,,,,,,,,,,,,,,,,,,,,,,,,,,,,,,,,,,,,,,,,,,,,,,,,,,,,,,,,,,,,,,,,,,,,,,,,,,,,,,,,,2.2,2.666667,,,,,,
91556,366,2020-04-01 13:04:37,EN,67,Female,"College degree, bachelor, master",Up to 12 years of school,Retired,United States,no,Florida,Single,0.0,Yes,Isolated,0.0,0.0,,,,1.0,1.0,1.0,5.0,5.0,1.0,5.0,5.0,1.0,1.0,1.0,2.0,3.0,,,,,,,,,,,,,,,,,,,,,,,,,,,,,,,,,,,,,,,,,,,,,,,,,,,,,,,,,,,,,,,,,,,,,,,,,,,,,,,,,,,,,,,,,,,,,,,1.0,2.0,,,,,,
91598,136,2020-04-01 12:57:50,EN,36,Female,"Some College, short continuing education or equivalent",College degree,Full time employed,United States,no,California,Divorced/widowed,2.0,No,Life carries on with minor changes,2.0,2.0,,,,,,,,,,,,,,,,,,,,,,,,,,,,,,,,,,,,,,,,,,,,,,,,,,,,,,,,,,,,,,,,,,,,,,,,,,,,,,,,,,,,,,,,,,,,,,,,,,,,,,,,,,,,,,,,,,,,,,
91610,1505,2020-03-31 13:19:32,EN,25,Male,"Some College, short continuing education or equivalent",PhD/Doctorate,Part time employed,United States,no,Massachusetts,Single,0.0,No,Isolated,3.0,0.0,,Program D,No,4.0,5.0,5.0,2.0,2.0,5.0,1.0,2.0,5.0,4.0,3.0,3.0,3.0,5.0,8.0,1.0,0.0,7.0,4.0,7.0,0.0,4.0,3.0,4.0,6.0,6.0,1.0,5.0,4.0,5.0,2.0,4.0,5.0,5.0,4.0,5.0,6.0,3.0,4.0,5.0,5.0,5.0,4.0,4.0,6.0,5.0,4.0,5.0,6.0,99.0,99.0,4.0,4.0,3.0,99.0,6.0,99.0,6.0,2.0,1.0,2.0,3.0,99.0,2.0,2.0,4.0,4.0,5.0,2.0,2.0,6.0,99.0,,6.0,5.0,6.0,6.0,6.0,6.0,6.0,6.0,6.0,6.0,3.0,4.0,2.0,,3.0,5.0,1.0,1.0,3.0,5.0,5.0,3.0,,4.0,1.0,4.0,,4.0,2.0,2.0,4.0,4.0,4.0,,4.5,3.0,3.666667,4.0,5.0,4.333333,4.333333,5.9
91612,926,2020-03-31 13:09:52,EN,61,Male,"Some College, short continuing education or equivalent",Some College or equivalent,Retired,United States,no,Mi,Single,0.0,Yes,Isolated,0.0,0.0,Program A,,No,2.0,2.0,4.0,4.0,4.0,2.0,5.0,5.0,3.0,2.0,5.0,4.0,5.0,1.0,1.0,1.0,1.0,7.0,5.0,8.0,2.0,5.0,5.0,5.0,3.0,3.0,2.0,5.0,5.0,5.0,5.0,5.0,4.0,5.0,2.0,6.0,5.0,5.0,5.0,5.0,5.0,5.0,4.0,5.0,5.0,5.0,2.0,5.0,3.0,5.0,5.0,1.0,2.0,6.0,3.0,99.0,1.0,6.0,4.0,2.0,1.0,4.0,99.0,5.0,1.0,6.0,4.0,4.0,1.0,2.0,6.0,5.0,,6.0,5.0,5.0,1.0,6.0,6.0,6.0,6.0,5.0,6.0,4.0,3.0,4.0,3.0,4.0,4.0,1.0,1.0,5.0,3.0,5.0,4.0,2.0,4.0,4.0,5.0,,3.0,5.0,1.0,4.0,4.0,3.0,,2.1,4.666667,2.666667,4.0,5.0,4.333333,5.0,5.2
91736,1452,2020-03-31 13:10:35,EN,52,Female,"College degree, bachelor, master",Some College or equivalent,Full time employed,United States,no,New Jersey,Married/cohabiting,1.0,Yes,Isolated,2.0,0.0,Program A,,No,4.0,3.0,5.0,4.0,2.0,4.0,3.0,3.0,3.0,3.0,2.0,2.0,2.0,6.0,8.0,2.0,7.0,8.0,4.0,8.0,1.0,6.0,6.0,6.0,6.0,6.0,1.0,6.0,6.0,6.0,2.0,4.0,4.0,6.0,5.0,5.0,5.0,6.0,2.0,5.0,6.0,6.0,3.0,5.0,5.0,6.0,2.0,5.0,6.0,4.0,99.0,6.0,4.0,5.0,99.0,2.0,99.0,6.0,5.0,6.0,6.0,99.0,4.0,4.0,4.0,3.0,4.0,5.0,5.0,1.0,5.0,6.0,,6.0,6.0,6.0,6.0,6.0,6.0,6.0,6.0,6.0,6.0,4.0,6.0,6.0,4.0,5.0,5.0,1.0,1.0,5.0,5.0,4.0,4.0,5.0,6.0,1.0,5.0,,2.0,5.0,6.0,4.0,5.0,4.0,"Corporate America (including the big business health care system we have) and federal government only care about the bottom line and the almighty dollar, not the well being of it's people. We are lucky to have some local government's that are taking charge and doing the right thing.",3.4,2.0,4.333333,5.333333,5.666667,4.666667,5.333333,6.0
91894,879,2020-04-01 12:49:33,EN,66,Female,PhD/Doctorate,Some College or equivalent,Retired,United States,no,Indiana,Divorced/widowed,0.0,Yes,Isolated,0.0,0.0,,Program D,No,2.0,2.0,2.0,4.0,4.0,2.0,4.0,5.0,4.0,2.0,3.0,2.0,2.0,8.0,9.0,3.0,7.0,7.0,8.0,9.0,3.0,5.0,6.0,5.0,6.0,6.0,0.0,6.0,6.0,6.0,2.0,3.0,3.0,6.0,2.0,6.0,6.0,6.0,1.0,6.0,6.0,6.0,4.0,6.0,6.0,6.0,1.0,6.0,3.0,99.0,99.0,99.0,1.0,4.0,1.0,99.0,,6.0,5.0,6.0,6.0,5.0,1.0,1.0,1.0,4.0,5.0,2.0,1.0,1.0,2.0,4.0,,6.0,5.0,5.0,6.0,6.0,6.0,6.0,6.0,6.0,6.0,1.0,2.0,6.0,2.0,4.0,6.0,1.0,1.0,4.0,5.0,4.0,1.0,3.0,4.0,1.0,1.0,,2.0,6.0,6.0,4.0,6.0,2.0,,2.1,2.333333,3.0,6.0,6.0,5.0,6.0,5.8
91900,619,2020-03-31 12:44:41,EN,45,Female,PhD/Doctorate,College degree,Part time employed,United States,yes,Nevada,Married/cohabiting,2.0,Yes,Isolated,1.0,1.0,,,,5.0,4.0,5.0,3.0,3.0,5.0,3.0,5.0,5.0,2.0,1.0,1.0,2.0,7.0,9.0,3.0,8.0,10.0,0.0,7.0,3.0,6.0,6.0,6.0,6.0,6.0,1.0,6.0,6.0,6.0,6.0,5.0,5.0,1.0,4.0,6.0,2.0,1.0,5.0,6.0,5.0,6.0,1.0,6.0,4.0,5.0,2.0,6.0,5.0,6.0,2.0,6.0,5.0,1.0,1.0,1.0,1.0,6.0,1.0,6.0,5.0,6.0,4.0,1.0,3.0,1.0,1.0,4.0,1.0,1.0,6.0,2.0,,6.0,6.0,6.0,6.0,6.0,6.0,5.0,6.0,6.0,6.0,1.0,6.0,6.0,1.0,2.0,1.0,1.0,1.0,5.0,5.0,6.0,3.0,4.0,1.0,4.0,4.0,,4.0,5.0,4.0,1.0,1.0,2.0,,3.6,1.333333,2.0,1.666667,5.666667,5.333333,5.333333,5.9
91956,704,2020-03-31 12:42:32,EN,29,Female,"College degree, bachelor, master",Up to 12 years of school,Full time employed,United States,no,Georgia,Married/cohabiting,0.0,Yes,Life carries on with minor changes,1.0,0.0,,Program D,Yes,3.0,3.0,5.0,5.0,3.0,3.0,4.0,4.0,3.0,3.0,1.0,1.0,2.0,7.0,10.0,6.0,8.0,8.0,8.0,10.0,6.0,5.0,6.0,5.0,6.0,6.0,3.0,6.0,6.0,6.0,1.0,2.0,2.0,5.0,4.0,3.0,4.0,3.0,4.0,4.0,6.0,6.0,2.0,6.0,5.0,5.0,1.0,5.0,1.0,1.0,99.0,2.0,2.0,1.0,1.0,1.0,99.0,6.0,3.0,6.0,6.0,6.0,3.0,1.0,2.0,1.0,4.0,1.0,2.0,1.0,2.0,1.0,,6.0,6.0,6.0,6.0,6.0,6.0,6.0,6.0,6.0,6.0,5.0,1.0,6.0,1.0,5.0,1.0,1.0,1.0,6.0,3.0,5.0,6.0,6.0,5.0,4.0,5.0,Exercise,6.0,4.0,4.0,5.0,5.0,1.0,,2.8,1.333333,4.333333,3.333333,5.333333,5.333333,5.333333,6.0
92025,829,2020-03-31 12:40:03,EN,39,Male,PhD/Doctorate,College degree,Full time employed,United States,no,Nevada,Married/cohabiting,3.0,Yes,Isolated,5.0,2.0,,Program D,No,3.0,3.0,3.0,5.0,4.0,1.0,4.0,4.0,4.0,1.0,1.0,2.0,2.0,5.0,9.0,8.0,8.0,8.0,6.0,7.0,5.0,3.0,4.0,4.0,6.0,6.0,3.0,6.0,6.0,6.0,6.0,3.0,4.0,4.0,6.0,6.0,4.0,4.0,4.0,6.0,6.0,5.0,4.0,2.0,5.0,6.0,1.0,6.0,6.0,6.0,1.0,1.0,2.0,6.0,2.0,2.0,2.0,99.0,3.0,6.0,5.0,5.0,2.0,5.0,1.0,1.0,3.0,1.0,3.0,2.0,6.0,99.0,,6.0,6.0,6.0,6.0,6.0,6.0,6.0,6.0,6.0,6.0,4.0,5.0,5.0,3.0,5.0,4.0,4.0,2.0,6.0,4.0,5.0,4.0,5.0,5.0,3.0,4.0,,5.0,6.0,6.0,2.0,6.0,4.0,,2.2,1.666667,3.666667,3.666667,5.666667,3.333333,6.0,6.0
92099,1412,2020-03-31 12:44:56,SME,75,Female,"College degree, bachelor, master",Up to 12 years of school,Self-employed,United States,yes,California,Married/cohabiting,0.0,Yes,Isolated,1.0,0.0,,Program D,No,5.0,4.0,4.0,3.0,2.0,4.0,2.0,2.0,5.0,4.0,2.0,2.0,4.0,5.0,8.0,4.0,8.0,2.0,5.0,8.0,4.0,6.0,5.0,4.0,6.0,6.0,0.0,5.0,5.0,5.0,5.0,5.0,3.0,5.0,5.0,2.0,5.0,4.0,3.0,3.0,5.0,5.0,3.0,2.0,4.0,3.0,2.0,5.0,5.0,6.0,99.0,6.0,5.0,5.0,99.0,5.0,99.0,,3.0,6.0,6.0,5.0,6.0,6.0,3.0,4.0,4.0,4.0,5.0,5.0,6.0,,Scarcity of a medication important for me (methotrexate),4.0,4.0,3.0,4.0,3.0,4.0,4.0,5.0,4.0,4.0,4.0,2.0,5.0,2.0,4.0,4.0,1.0,1.0,4.0,2.0,3.0,5.0,3.0,3.0,1.0,5.0,Put my house and files in order. Declutter.,5.0,5.0,5.0,5.0,5.0,2.0,'- No tengo más trabajo ni ingresos. - Mis ahorros e inversiones devaluaron - Temo recurrir al medico por aflicciones relativamente menores por no querer abusar del sistema ,4.1,2.666667,5.0,4.333333,4.333333,3.333333,4.333333,3.9
92139,3308,2020-03-31 13:13:48,EN,36,Female,"College degree, bachelor, master",College degree,Full time employed,United States,no,Texas,Married/cohabiting,0.0,Yes,Life carries on with minor changes,,,Program A,,No,3.0,3.0,3.0,4.0,2.0,3.0,4.0,4.0,4.0,2.0,1.0,2.0,3.0,3.0,9.0,1.0,1.0,3.0,5.0,7.0,0.0,5.0,6.0,6.0,5.0,5.0,0.0,6.0,5.0,5.0,1.0,2.0,3.0,4.0,4.0,3.0,4.0,2.0,5.0,5.0,5.0,4.0,5.0,5.0,5.0,4.0,5.0,4.0,1.0,2.0,99.0,2.0,1.0,5.0,1.0,2.0,99.0,3.0,2.0,6.0,6.0,6.0,2.0,2.0,1.0,2.0,2.0,2.0,2.0,2.0,6.0,2.0,,6.0,6.0,6.0,6.0,6.0,6.0,6.0,6.0,6.0,6.0,2.0,1.0,5.0,2.0,4.0,4.0,3.0,3.0,5.0,5.0,4.0,5.0,2.0,5.0,1.0,2.0,,5.0,4.0,5.0,5.0,4.0,2.0,,2.8,2.0,4.0,2.666667,4.666667,4.0,3.333333,6.0
92197,672,2020-03-31 12:26:55,EN,41,Female,"College degree, bachelor, master",College degree,Part time employed,United States,no,MI,Married/cohabiting,2.0,Yes,Isolated,1.0,1.0,Program A,,No,3.0,4.0,4.0,3.0,3.0,2.0,3.0,3.0,4.0,4.0,2.0,2.0,2.0,7.0,8.0,2.0,6.0,6.0,4.0,7.0,1.0,2.0,4.0,3.0,5.0,5.0,2.0,5.0,5.0,5.0,3.0,4.0,4.0,5.0,5.0,4.0,3.0,2.0,5.0,4.0,3.0,3.0,3.0,4.0,4.0,5.0,3.0,5.0,2.0,3.0,6.0,3.0,4.0,4.0,1.0,3.0,5.0,5.0,4.0,4.0,5.0,5.0,4.0,2.0,3.0,2.0,2.0,3.0,3.0,3.0,6.0,2.0,Not other but my main stressors are worrying about elderly loved ones and my childrens education.  I feel very bad about my children being isolated from friends.,4.0,3.0,2.0,3.0,4.0,4.0,4.0,5.0,5.0,5.0,3.0,2.0,5.0,2.0,4.0,4.0,2.0,3.0,4.0,4.0,3.0,3.0,3.0,4.0,1.0,3.0,,4.0,4.0,5.0,4.0,6.0,4.0,"Home schooling while working has been a huge challenge, and I feel guilt from letting my kids watch too much tv/computer time.",3.3,2.0,4.333333,2.333333,3.333333,4.0,4.666667,3.9
92308,6681,2020-03-31 13:58:22,EN,68,Female,"College degree, bachelor, master",Some College or equivalent,Retired,United States,no,California,Married/cohabiting,0.0,Yes,Isolated,1.0,0.0,,Program C,No,3.0,3.0,3.0,3.0,3.0,2.0,3.0,3.0,3.0,3.0,2.0,2.0,2.0,7.0,9.0,1.0,3.0,6.0,5.0,8.0,1.0,4.0,4.0,4.0,6.0,6.0,0.0,6.0,6.0,6.0,1.0,2.0,5.0,4.0,2.0,5.0,5.0,4.0,4.0,6.0,6.0,6.0,4.0,5.0,5.0,5.0,4.0,6.0,99.0,99.0,99.0,99.0,4.0,5.0,2.0,5.0,99.0,6.0,5.0,4.0,4.0,5.0,99.0,5.0,2.0,2.0,4.0,99.0,4.0,2.0,5.0,6.0,"Effect upon small businesses, restaurants.  Increasing homelessness.  Effects upon stock markets and major industries",6.0,5.0,5.0,5.0,6.0,5.0,6.0,6.0,5.0,6.0,4.0,4.0,6.0,3.0,5.0,4.0,2.0,2.0,5.0,4.0,4.0,4.0,4.0,6.0,4.0,5.0,"My dogs, my backyard, my hobbies",4.0,6.0,5.0,4.0,5.0,4.0,"Distrust of US government has increased.  Distress over medical staff and lack of support from government ie sending faulty tests and ventilators.  Near hysteria of people in community buying and hoarding.  People wanting to help and sewing 100s of masks to deliver to hospital who only wants N95 (those people were told N95 only but were in denial).  Friends who suddenly have no income and fear business will be unable to open again.  Fear of social uprising, anarchy...gun sales rocketing.  Disgust with Trump and fear he will be elected again by default.  Feat over impact upon presidential election due to going to polling place in areas with no mail-in ballots.  Fear for impoverished isolated areas if virus reaches there. .Appalachia, Indian Reservations, prisons, etc.  What world will my grandchildren have? While I am anxious and fearful about these issues I am not hysterical or crying etc.  Wonderful to see ingenuity, problem solving and willingness to help.  Hopefully positive changes to the fundamental way society and businesses conduct themselves.  I THINK THIS SURVEY SHOULD BE REPEATED AT 1 MONTH INTERVALS...views/feelings are likely to change.  California is at the beginning",2.9,2.0,2.666667,4.0,6.0,4.333333,4.666667,5.5
92363,780,2020-03-31 12:16:35,FR,39,Female,"College degree, bachelor, master",Up to 6 years of school,Full time employed,United States,yes,,Married/cohabiting,1.0,Yes,Life carries on with minor changes,1.0,0.0,Program A,,No,1.0,1.0,3.0,4.0,4.0,2.0,3.0,4.0,1.0,1.0,2.0,1.0,3.0,7.0,9.0,3.0,5.0,5.0,4.0,4.0,2.0,3.0,6.0,5.0,5.0,5.0,0.0,4.0,5.0,6.0,1.0,2.0,3.0,4.0,4.0,4.0,4.0,4.0,4.0,4.0,5.0,3.0,3.0,3.0,6.0,5.0,2.0,5.0,1.0,1.0,1.0,2.0,1.0,3.0,1.0,1.0,1.0,5.0,1.0,6.0,6.0,99.0,1.0,1.0,1.0,2.0,3.0,5.0,5.0,3.0,6.0,1.0,,6.0,5.0,5.0,6.0,6.0,5.0,6.0,6.0,4.0,6.0,4.0,1.0,5.0,5.0,5.0,5.0,4.0,1.0,5.0,4.0,4.0,1.0,5.0,4.0,1.0,4.0,,,5.0,6.0,4.0,6.0,1.0,,1.8,2.0,3.666667,3.666667,4.0,4.333333,5.0,5.5
92473,1544,2020-03-31 12:21:59,FR,27,Male,PhD/Doctorate,Some College or equivalent,Full time employed,United States,yes,connecticut,Single,0.0,Yes,Life carries on with minor changes,2.0,0.0,Program A,,No,1.0,1.0,1.0,5.0,3.0,1.0,5.0,4.0,1.0,1.0,2.0,1.0,3.0,5.0,7.0,4.0,4.0,7.0,7.0,10.0,4.0,2.0,3.0,3.0,5.0,5.0,3.0,2.0,5.0,6.0,2.0,6.0,2.0,1.0,1.0,5.0,3.0,2.0,5.0,4.0,4.0,5.0,2.0,5.0,5.0,2.0,4.0,5.0,99.0,4.0,99.0,1.0,2.0,4.0,99.0,1.0,99.0,1.0,1.0,2.0,1.0,4.0,1.0,1.0,99.0,2.0,4.0,1.0,3.0,4.0,2.0,5.0,,4.0,5.0,5.0,2.0,3.0,5.0,2.0,2.0,5.0,4.0,2.0,3.0,6.0,3.0,5.0,2.0,4.0,4.0,4.0,3.0,2.0,4.0,5.0,6.0,1.0,4.0,,5.0,2.0,4.0,2.0,2.0,2.0,,1.3,2.0,1.333333,2.333333,4.333333,5.0,3.333333,3.7
92489,877,2020-03-31 12:09:37,ZH-T,27,Female,"College degree, bachelor, master",Some College or equivalent,Full time employed,United States,yes,"Austin, Texas",Single,0.0,No,Isolated,0.0,0.0,,Program D,No,3.0,2.0,4.0,3.0,2.0,3.0,3.0,4.0,2.0,4.0,4.0,2.0,4.0,6.0,8.0,7.0,8.0,7.0,7.0,7.0,9.0,5.0,6.0,4.0,5.0,4.0,3.0,6.0,6.0,6.0,6.0,3.0,6.0,5.0,5.0,4.0,4.0,4.0,5.0,5.0,,5.0,3.0,5.0,4.0,4.0,5.0,6.0,2.0,2.0,99.0,99.0,5.0,5.0,99.0,99.0,99.0,99.0,2.0,5.0,5.0,4.0,3.0,3.0,4.0,5.0,6.0,6.0,4.0,2.0,2.0,99.0,,5.0,5.0,5.0,5.0,5.0,5.0,5.0,5.0,5.0,5.0,3.0,3.0,3.0,3.0,3.0,3.0,5.0,4.0,3.0,3.0,3.0,3.0,3.0,3.0,3.0,3.0,,3.0,4.0,4.0,3.0,5.0,4.0,,3.0,3.333333,4.333333,3.333333,5.0,4.333333,4.0,5.0
92572,1088,2020-04-01 12:08:59,SME,58,Female,"College degree, bachelor, master",College degree,Self-employed,United States,yes,New Hampshire,Married/cohabiting,0.0,Yes,Isolated,1.0,0.0,,,,2.0,2.0,2.0,4.0,4.0,2.0,5.0,3.0,1.0,1.0,2.0,1.0,2.0,9.0,9.0,8.0,8.0,6.0,3.0,7.0,3.0,6.0,6.0,6.0,6.0,6.0,9.0,6.0,6.0,6.0,2.0,4.0,1.0,4.0,3.0,6.0,2.0,4.0,6.0,6.0,6.0,6.0,2.0,5.0,6.0,6.0,1.0,6.0,,,,,,,,,,,,,,,,,,,,,,,,,,,,,,,,,,,,,,,,,,,,,,,,,,,,,,,,,,,,1.8,1.666667,2.666667,2.333333,6.0,5.333333,6.0,
92632,845,2020-03-31 12:00:49,EN,22,Female,"College degree, bachelor, master",College degree,Full time employed,United States,no,CA,Single,0.0,No,Isolated,4.0,0.0,Program B,,Yes,2.0,2.0,2.0,4.0,4.0,2.0,4.0,4.0,2.0,2.0,3.0,2.0,4.0,6.0,8.0,6.0,5.0,6.0,5.0,5.0,2.0,4.0,5.0,4.0,6.0,6.0,2.0,6.0,6.0,6.0,1.0,1.0,4.0,3.0,2.0,4.0,5.0,5.0,2.0,6.0,5.0,3.0,2.0,4.0,5.0,5.0,4.0,5.0,2.0,4.0,99.0,2.0,2.0,4.0,1.0,4.0,99.0,4.0,5.0,6.0,6.0,4.0,1.0,1.0,99.0,2.0,2.0,2.0,2.0,1.0,2.0,2.0,,6.0,5.0,6.0,6.0,5.0,6.0,6.0,6.0,5.0,6.0,5.0,5.0,6.0,5.0,5.0,5.0,1.0,1.0,6.0,4.0,5.0,5.0,3.0,5.0,1.0,6.0,,5.0,5.0,4.0,5.0,5.0,5.0,,2.0,3.0,2.666667,5.0,4.666667,4.666667,4.333333,5.7
92745,787,2020-03-31 11:53:17,EN,29,Male,"College degree, bachelor, master",College degree,Full time employed,United States,yes,,Married/cohabiting,1.0,No,Life carries on with minor changes,6.0,3.0,,Program D,Not sure,3.0,3.0,4.0,4.0,3.0,3.0,4.0,3.0,4.0,4.0,3.0,3.0,3.0,7.0,9.0,2.0,2.0,3.0,4.0,3.0,2.0,4.0,4.0,5.0,6.0,6.0,2.0,4.0,4.0,5.0,3.0,4.0,4.0,4.0,3.0,5.0,4.0,4.0,4.0,4.0,3.0,4.0,3.0,4.0,5.0,5.0,1.0,4.0,6.0,6.0,4.0,6.0,5.0,6.0,6.0,5.0,3.0,6.0,4.0,4.0,4.0,4.0,4.0,4.0,6.0,5.0,6.0,5.0,6.0,4.0,6.0,6.0,,4.0,5.0,4.0,1.0,5.0,5.0,5.0,3.0,5.0,5.0,4.0,4.0,5.0,3.0,4.0,5.0,1.0,1.0,6.0,3.0,4.0,2.0,4.0,4.0,5.0,5.0,,3.0,4.0,4.0,3.0,4.0,1.0,,3.1,3.0,3.0,3.666667,3.666667,4.333333,5.0,4.2
92809,546,2020-03-31 11:45:02,EN,34,Male,"College degree, bachelor, master",Up to 12 years of school,Full time employed,United States,no,texas,Married/cohabiting,0.0,Yes,Isolated,2.0,0.0,Program A,,No,5.0,5.0,5.0,2.0,1.0,5.0,5.0,1.0,5.0,5.0,5.0,5.0,5.0,7.0,9.0,2.0,1.0,8.0,6.0,8.0,0.0,6.0,6.0,6.0,6.0,6.0,0.0,3.0,3.0,4.0,4.0,4.0,5.0,6.0,6.0,2.0,6.0,6.0,1.0,6.0,6.0,6.0,5.0,5.0,6.0,3.0,5.0,5.0,6.0,5.0,99.0,5.0,6.0,6.0,6.0,6.0,99.0,6.0,6.0,6.0,6.0,6.0,6.0,2.0,4.0,6.0,6.0,5.0,5.0,5.0,6.0,99.0,,6.0,5.0,5.0,5.0,6.0,4.0,6.0,6.0,5.0,6.0,1.0,4.0,6.0,6.0,6.0,6.0,5.0,5.0,3.0,4.0,4.0,1.0,6.0,6.0,6.0,1.0,,1.0,3.0,3.0,5.0,3.0,4.0,,4.5,5.0,5.666667,6.0,6.0,4.333333,3.333333,5.4
92847,2699,2020-03-31 12:18:39,EN,33,Male,"College degree, bachelor, master",College degree,Not employed,United States,no,Illinois,Single,0.0,Yes,Life carries on with minor changes,3.0,0.0,,Program C,No,2.0,3.0,2.0,3.0,3.0,2.0,5.0,4.0,4.0,1.0,4.0,1.0,2.0,4.0,9.0,2.0,4.0,,3.0,0.0,6.0,4.0,6.0,6.0,4.0,2.0,5.0,6.0,6.0,6.0,6.0,5.0,6.0,3.0,5.0,3.0,2.0,1.0,5.0,3.0,5.0,5.0,4.0,4.0,5.0,5.0,1.0,5.0,1.0,1.0,1.0,1.0,5.0,4.0,1.0,5.0,1.0,1.0,1.0,6.0,5.0,6.0,1.0,1.0,1.0,5.0,4.0,1.0,1.0,1.0,5.0,1.0,,5.0,2.0,5.0,5.0,5.0,5.0,5.0,5.0,5.0,5.0,4.0,5.0,5.0,1.0,1.0,5.0,1.0,1.0,5.0,5.0,1.0,5.0,1.0,5.0,1.0,5.0,,1.0,5.0,1.0,5.0,5.0,1.0,,2.3,2.333333,4.0,1.666667,4.333333,4.0,5.333333,4.7
92889,1114,2020-03-31 11:49:41,EN,18,Female,"Some College, short continuing education or equivalent",Some College or equivalent,Student,United States,no,TX,Single,0.0,Yes,Isolated,3.0,0.0,,Program C,Yes,4.0,2.0,3.0,3.0,3.0,3.0,2.0,2.0,1.0,2.0,4.0,3.0,3.0,4.0,9.0,1.0,3.0,6.0,8.0,8.0,2.0,4.0,6.0,5.0,6.0,6.0,0.0,6.0,6.0,6.0,4.0,3.0,4.0,4.0,2.0,5.0,5.0,5.0,2.0,5.0,6.0,5.0,4.0,3.0,5.0,4.0,4.0,6.0,4.0,6.0,99.0,2.0,3.0,6.0,4.0,5.0,99.0,4.0,6.0,6.0,5.0,6.0,6.0,4.0,2.0,5.0,4.0,4.0,2.0,1.0,5.0,6.0,,5.0,3.0,4.0,5.0,5.0,4.0,6.0,5.0,6.0,5.0,5.0,6.0,6.0,5.0,5.0,6.0,1.0,1.0,5.0,5.0,4.0,4.0,4.0,6.0,3.0,5.0,,5.0,5.0,5.0,5.0,5.0,2.0,,2.9,3.333333,2.666667,5.0,5.333333,3.666667,4.333333,4.8
93021,1154,2020-03-31 11:40:37,EN,53,Male,"College degree, bachelor, master",Up to 12 years of school,Full time employed,United States,no,Michigan,Married/cohabiting,2.0,Yes,Isolated,1.0,1.0,,Program D,No,4.0,4.0,4.0,4.0,4.0,2.0,3.0,4.0,3.0,3.0,1.0,3.0,5.0,7.0,9.0,4.0,8.0,8.0,9.0,5.0,5.0,6.0,6.0,6.0,6.0,6.0,4.0,5.0,6.0,6.0,4.0,4.0,4.0,6.0,5.0,5.0,6.0,6.0,1.0,5.0,4.0,5.0,2.0,5.0,6.0,5.0,1.0,5.0,6.0,5.0,5.0,6.0,5.0,6.0,2.0,2.0,1.0,6.0,3.0,6.0,6.0,6.0,5.0,6.0,4.0,4.0,5.0,5.0,5.0,2.0,6.0,6.0,,6.0,6.0,6.0,6.0,6.0,6.0,6.0,6.0,6.0,6.0,5.0,1.0,6.0,1.0,5.0,5.0,1.0,1.0,5.0,5.0,4.0,6.0,6.0,5.0,2.0,5.0,"Houseparty, Zoom, FaceTime.",6.0,5.0,5.0,6.0,5.0,2.0,"Telling the truth. Not exaggerating. Taking credit for anything, in this together. The thought of losing my job is scary, of anyone losing their jobs.",2.9,3.0,4.333333,6.0,4.666667,5.333333,5.333333,6.0
93041,1733,2020-04-01 11:48:58,SME,28,Female,"College degree, bachelor, master",Some College or equivalent,Self-employed,United States,yes,Nevada,Married/cohabiting,2.0,No,Isolated,1.0,2.0,,Program C,No,2.0,1.0,2.0,4.0,5.0,1.0,5.0,4.0,2.0,2.0,1.0,1.0,1.0,4.0,6.0,5.0,10.0,7.0,6.0,6.0,7.0,4.0,6.0,4.0,5.0,4.0,4.0,6.0,6.0,6.0,1.0,1.0,2.0,2.0,1.0,5.0,6.0,5.0,4.0,6.0,4.0,6.0,1.0,5.0,6.0,6.0,1.0,6.0,6.0,1.0,1.0,1.0,1.0,1.0,1.0,1.0,1.0,1.0,1.0,2.0,4.0,4.0,1.0,1.0,1.0,1.0,4.0,1.0,1.0,1.0,4.0,1.0,La seguridad de otros menores en casa con adultos estresados,6.0,6.0,6.0,6.0,6.0,6.0,6.0,6.0,6.0,6.0,4.0,5.0,5.0,5.0,6.0,4.0,1.0,1.0,1.0,6.0,1.0,4.0,6.0,6.0,4.0,5.0,,1.0,2.0,1.0,1.0,4.0,2.0,,1.6,1.0,1.666667,4.666667,5.333333,5.666667,6.0,6.0
93057,2747,2020-04-01 12:04:38,FR,29,Male,PhD/Doctorate,Up to 12 years of school,Full time employed,United States,yes,Massachusetts,Married/cohabiting,0.0,Yes,Isolated,1.0,0.0,,Program C,Not sure,1.0,4.0,1.0,5.0,3.0,2.0,5.0,3.0,1.0,1.0,3.0,1.0,2.0,7.0,9.0,8.0,8.0,7.0,9.0,9.0,8.0,2.0,4.0,2.0,5.0,5.0,5.0,5.0,5.0,5.0,1.0,4.0,3.0,,,,,,,,,,,,,,,,,,,,,,,,,,,,,,,,,,,,,,,,,,,,,,,,,,,,,,,,,,,,,,,,,,,,,,,,,,,1.8,2.0,,,,,,
93118,811,2020-04-01 11:26:58,EN,46,Female,"Some College, short continuing education or equivalent",College degree,Self-employed,United States,yes,New York,Married/cohabiting,1.0,No,Isolated,1.0,1.0,,Program D,Not sure,5.0,3.0,3.0,3.0,3.0,3.0,3.0,3.0,4.0,3.0,3.0,3.0,3.0,5.0,8.0,1.0,3.0,3.0,5.0,7.0,0.0,5.0,6.0,6.0,6.0,6.0,3.0,6.0,6.0,6.0,5.0,6.0,5.0,5.0,3.0,4.0,6.0,6.0,3.0,6.0,6.0,6.0,2.0,5.0,6.0,5.0,3.0,6.0,6.0,5.0,6.0,6.0,5.0,5.0,99.0,4.0,3.0,6.0,3.0,6.0,6.0,6.0,2.0,2.0,2.0,2.0,4.0,4.0,6.0,5.0,6.0,4.0,,6.0,6.0,6.0,6.0,6.0,5.0,5.0,6.0,5.0,5.0,4.0,5.0,6.0,5.0,5.0,5.0,1.0,1.0,6.0,5.0,5.0,4.0,5.0,5.0,5.0,5.0,,6.0,5.0,6.0,5.0,6.0,6.0,,3.3,3.0,3.666667,5.333333,6.0,5.333333,5.0,5.6
93167,123,2020-04-01 11:10:26,EN,38,Female,"College degree, bachelor, master",Some College or equivalent,Full time employed,United States,no,Michigan,Divorced/widowed,2.0,Yes,Isolated,0.0,0.0,,,,,,,,,,,,,,,,,,,,,,,,,,,,,,,,,,,,,,,,,,,,,,,,,,,,,,,,,,,,,,,,,,,,,,,,,,,,,,,,,,,,,,,,,,,,,,,,,,,,,,,,,,,,,,,,,,,,,,
93271,704,2020-04-01 11:12:36,EN,55,Female,"Some College, short continuing education or equivalent",Some College or equivalent,Full time employed,United States,no,California,Married/cohabiting,0.0,Yes,Life carries on with minor changes,1.0,0.0,Program A,,No,3.0,3.0,2.0,1.0,3.0,2.0,2.0,4.0,3.0,1.0,1.0,1.0,4.0,9.0,10.0,6.0,8.0,8.0,7.0,10.0,4.0,5.0,6.0,6.0,6.0,6.0,3.0,6.0,6.0,5.0,2.0,4.0,1.0,5.0,4.0,4.0,6.0,4.0,4.0,2.0,5.0,5.0,2.0,6.0,6.0,4.0,4.0,4.0,3.0,2.0,99.0,1.0,2.0,2.0,2.0,1.0,99.0,2.0,5.0,5.0,6.0,6.0,99.0,2.0,2.0,2.0,2.0,2.0,5.0,2.0,2.0,1.0,,6.0,6.0,5.0,6.0,6.0,4.0,6.0,6.0,2.0,6.0,4.0,6.0,6.0,5.0,6.0,6.0,4.0,4.0,5.0,5.0,5.0,5.0,5.0,4.0,6.0,3.0,,2.0,6.0,3.0,6.0,6.0,3.0,,2.8,2.0,4.0,4.333333,4.0,5.666667,3.666667,5.3
93272,1081,2020-03-31 11:18:06,EN,72,Female,"Some College, short continuing education or equivalent",Some College or equivalent,Retired,United States,no,,Divorced/widowed,1.0,Yes,Isolated,3.0,2.0,Program B,,No,1.0,1.0,2.0,4.0,3.0,1.0,5.0,4.0,2.0,1.0,1.0,1.0,1.0,7.0,9.0,,7.0,7.0,5.0,10.0,,5.0,6.0,6.0,6.0,5.0,0.0,5.0,6.0,6.0,1.0,2.0,3.0,4.0,1.0,6.0,4.0,5.0,2.0,5.0,5.0,5.0,1.0,6.0,6.0,5.0,1.0,6.0,99.0,2.0,6.0,3.0,1.0,3.0,99.0,1.0,1.0,5.0,5.0,4.0,2.0,5.0,2.0,2.0,1.0,1.0,4.0,2.0,6.0,2.0,3.0,1.0,,6.0,6.0,6.0,6.0,6.0,6.0,6.0,6.0,6.0,6.0,1.0,4.0,5.0,1.0,3.0,5.0,2.0,1.0,5.0,4.0,5.0,5.0,1.0,5.0,5.0,1.0,,1.0,1.0,1.0,3.0,3.0,6.0,,1.6,1.0,2.0,4.666667,5.0,6.0,5.666667,6.0
93330,431,2020-03-31 11:02:26,ZH-T,29,Female,PhD/Doctorate,Some College or equivalent,Student,United States,yes,New York State,Single,0.0,Yes,Life carries on with minor changes,0.0,0.0,Program B,,No,3.0,4.0,3.0,4.0,2.0,3.0,2.0,2.0,2.0,2.0,3.0,1.0,4.0,7.0,8.0,8.0,5.0,6.0,10.0,1.0,9.0,5.0,5.0,5.0,6.0,5.0,5.0,6.0,6.0,5.0,4.0,3.0,6.0,4.0,4.0,6.0,5.0,5.0,3.0,4.0,5.0,4.0,4.0,6.0,5.0,5.0,4.0,5.0,2.0,3.0,4.0,5.0,5.0,6.0,1.0,2.0,1.0,6.0,5.0,6.0,5.0,6.0,2.0,2.0,4.0,5.0,6.0,5.0,6.0,2.0,5.0,6.0,,6.0,6.0,6.0,5.0,6.0,6.0,6.0,6.0,6.0,6.0,5.0,6.0,5.0,3.0,3.0,3.0,4.0,5.0,4.0,5.0,5.0,5.0,5.0,5.0,2.0,5.0,,5.0,4.0,5.0,2.0,5.0,5.0,,3.1,2.666667,3.0,4.666667,4.333333,4.666667,4.333333,5.9
93367,1314,2020-03-31 11:14:28,EN,39,Female,"Some College, short continuing education or equivalent",Some College or equivalent,Part time employed,United States,no,Oregon,Married/cohabiting,2.0,Yes,Isolated,1.0,2.0,,Program D,No,3.0,3.0,5.0,4.0,2.0,4.0,3.0,2.0,4.0,4.0,2.0,4.0,3.0,3.0,9.0,0.0,6.0,6.0,7.0,8.0,0.0,6.0,6.0,6.0,6.0,6.0,0.0,5.0,6.0,5.0,5.0,4.0,6.0,2.0,3.0,5.0,6.0,5.0,3.0,4.0,5.0,4.0,2.0,5.0,5.0,5.0,4.0,5.0,6.0,99.0,6.0,6.0,3.0,5.0,1.0,2.0,4.0,6.0,4.0,6.0,6.0,6.0,99.0,3.0,4.0,2.0,5.0,3.0,4.0,4.0,6.0,2.0,,6.0,6.0,6.0,6.0,6.0,5.0,6.0,6.0,5.0,6.0,2.0,4.0,6.0,3.0,4.0,5.0,2.0,4.0,4.0,4.0,3.0,4.0,2.0,3.0,1.0,2.0,,3.0,4.0,5.0,4.0,5.0,4.0,"I am currently unable to work but still technically employed do unable to collect unemployment. My husband is currently looking for work. Most places are not hiring due to the virus. This leaves us without any income. We have had to rely on savings, credit cards and our parents to pay bills and rent. Its very stressful.",3.6,3.0,2.333333,5.0,4.333333,5.0,4.333333,5.8
93460,662,2020-03-31 10:56:12,EN,38,Female,PhD/Doctorate,College degree,Full time employed,United States,yes,Minnesota,Married/cohabiting,0.0,Yes,Isolated,1.0,0.0,Program A,,Not sure,4.0,5.0,5.0,3.0,3.0,1.0,4.0,2.0,2.0,4.0,1.0,1.0,5.0,6.0,9.0,1.0,8.0,7.0,1.0,10.0,2.0,4.0,6.0,3.0,5.0,4.0,1.0,6.0,5.0,5.0,3.0,2.0,4.0,4.0,5.0,2.0,5.0,3.0,4.0,5.0,2.0,4.0,2.0,3.0,5.0,6.0,1.0,6.0,3.0,99.0,99.0,1.0,2.0,4.0,99.0,4.0,99.0,6.0,2.0,6.0,5.0,99.0,2.0,4.0,2.0,6.0,2.0,5.0,1.0,1.0,5.0,99.0,,6.0,6.0,6.0,6.0,6.0,6.0,6.0,6.0,6.0,6.0,3.0,1.0,6.0,1.0,6.0,4.0,1.0,4.0,4.0,5.0,3.0,3.0,4.0,4.0,1.0,1.0,,4.0,2.0,6.0,4.0,5.0,3.0,,3.3,2.333333,4.666667,3.666667,3.666667,4.333333,6.0,6.0
93469,1300,2020-03-31 11:05:56,EN,49,Male,"Some College, short continuing education or equivalent",Up to 9 years of school,Full time employed,United States,no,New Jersey,Married/cohabiting,0.0,Yes,Isolated,1.0,0.0,Program B,,No,3.0,3.0,4.0,3.0,3.0,3.0,4.0,4.0,3.0,3.0,2.0,5.0,4.0,4.0,8.0,4.0,7.0,5.0,6.0,10.0,1.0,5.0,6.0,5.0,5.0,5.0,0.0,5.0,4.0,4.0,5.0,4.0,1.0,4.0,3.0,4.0,3.0,3.0,5.0,4.0,5.0,6.0,4.0,4.0,4.0,3.0,6.0,5.0,6.0,5.0,99.0,5.0,4.0,3.0,1.0,2.0,99.0,6.0,4.0,5.0,5.0,4.0,4.0,2.0,3.0,3.0,4.0,2.0,4.0,2.0,5.0,3.0,,4.0,4.0,4.0,3.0,4.0,4.0,4.0,5.0,4.0,5.0,1.0,2.0,5.0,6.0,4.0,5.0,2.0,1.0,3.0,3.0,3.0,4.0,3.0,3.0,1.0,4.0,,3.0,2.0,5.0,4.0,4.0,4.0,,2.9,3.666667,3.333333,2.666667,5.0,3.666667,3.0,4.1
93474,557,2020-04-01 10:52:59,EN,67,Male,"College degree, bachelor, master",Up to 9 years of school,Retired,United States,no,New York,Single,0.0,Yes,Isolated,0.0,0.0,Program A,,No,5.0,3.0,5.0,4.0,1.0,2.0,3.0,3.0,5.0,2.0,5.0,1.0,3.0,7.0,10.0,3.0,8.0,3.0,3.0,6.0,2.0,5.0,6.0,6.0,5.0,5.0,1.0,5.0,5.0,5.0,4.0,4.0,2.0,6.0,5.0,4.0,3.0,2.0,4.0,4.0,6.0,5.0,3.0,4.0,5.0,3.0,6.0,3.0,99.0,99.0,99.0,99.0,5.0,5.0,5.0,99.0,99.0,5.0,3.0,6.0,99.0,6.0,99.0,2.0,99.0,5.0,4.0,5.0,2.0,2.0,4.0,5.0,,,,,,,,,,,,,,,,,,,,,,,,,,,,,,,,,,,,3.5,3.0,4.666667,2.666667,5.0,4.333333,2.333333,
93487,3065,2020-03-31 11:33:19,EN,34,Female,PhD/Doctorate,Up to 12 years of school,Full time employed,United States,yes,Florida,Other or would rather not say,0.0,Yes,Life carries on with minor changes,0.0,0.0,,Program D,No,3.0,4.0,4.0,4.0,2.0,2.0,5.0,2.0,4.0,2.0,4.0,4.0,4.0,8.0,9.0,1.0,3.0,7.0,2.0,8.0,0.0,2.0,6.0,4.0,6.0,6.0,0.0,6.0,5.0,5.0,2.0,5.0,3.0,3.0,3.0,5.0,4.0,3.0,4.0,5.0,4.0,5.0,3.0,5.0,5.0,6.0,1.0,5.0,1.0,5.0,99.0,3.0,1.0,1.0,1.0,99.0,99.0,5.0,1.0,6.0,6.0,6.0,4.0,2.0,4.0,4.0,2.0,1.0,4.0,1.0,3.0,5.0,,6.0,6.0,5.0,6.0,6.0,5.0,6.0,6.0,5.0,5.0,5.0,2.0,6.0,2.0,5.0,1.0,1.0,1.0,4.0,5.0,1.0,4.0,5.0,5.0,1.0,5.0,,4.0,4.0,6.0,6.0,1.0,2.0,,3.0,4.0,2.666667,3.333333,4.666667,4.666667,5.666667,5.6
93497,615,2020-04-01 10:52:04,LT,37,Female,"Some College, short continuing education or equivalent",College degree,Full time employed,United States,yes,Ilinois,Divorced/widowed,1.0,Not sure,Life carries on with minor changes,0.0,1.0,Program B,,No,4.0,1.0,,3.0,1.0,3.0,4.0,5.0,3.0,3.0,,2.0,2.0,5.0,9.0,8.0,8.0,8.0,6.0,8.0,8.0,1.0,1.0,1.0,1.0,1.0,5.0,4.0,3.0,1.0,6.0,4.0,1.0,,,,,,,,,,,,,,,,,,,,,,,,,,,,,,,,,,,,,,,,,,,,,,,,,,,,,,,,,,,,,,,,,,,,,,,,,,,2.777778,2.0,,,,,,
93498,808,2020-03-31 10:54:58,EN,44,Female,"College degree, bachelor, master",College degree,Full time employed,United States,no,Michigan,Divorced/widowed,2.0,Yes,Isolated,2.0,3.0,Program A,,No,4.0,4.0,5.0,4.0,4.0,2.0,3.0,3.0,4.0,4.0,2.0,1.0,5.0,7.0,9.0,1.0,7.0,7.0,5.0,3.0,1.0,5.0,5.0,5.0,6.0,6.0,3.0,5.0,5.0,6.0,6.0,3.0,5.0,2.0,4.0,5.0,6.0,6.0,1.0,5.0,6.0,4.0,3.0,6.0,5.0,3.0,2.0,5.0,2.0,5.0,5.0,2.0,5.0,6.0,1.0,4.0,5.0,6.0,5.0,6.0,6.0,6.0,4.0,6.0,5.0,6.0,6.0,5.0,5.0,3.0,5.0,2.0,Mental health over the long term,6.0,6.0,6.0,6.0,6.0,6.0,6.0,6.0,6.0,6.0,3.0,6.0,6.0,5.0,5.0,6.0,1.0,4.0,5.0,5.0,5.0,5.0,5.0,4.0,1.0,5.0,,6.0,6.0,6.0,6.0,6.0,1.0,,3.3,2.666667,2.666667,6.0,5.0,5.0,4.333333,6.0
93699,1326,2020-03-31 10:45:20,EN,36,Male,"College degree, bachelor, master",College degree,Full time employed,United States,no,ca,Married/cohabiting,0.0,Yes,Isolated,2.0,0.0,Program B,,No,1.0,1.0,2.0,5.0,3.0,1.0,5.0,4.0,1.0,1.0,1.0,2.0,5.0,7.0,9.0,5.0,10.0,10.0,7.0,10.0,7.0,5.0,5.0,5.0,5.0,5.0,5.0,5.0,4.0,4.0,1.0,1.0,1.0,2.0,3.0,6.0,4.0,4.0,3.0,4.0,6.0,3.0,2.0,4.0,5.0,3.0,3.0,5.0,1.0,5.0,99.0,5.0,4.0,5.0,99.0,4.0,99.0,6.0,1.0,6.0,5.0,2.0,1.0,1.0,1.0,5.0,4.0,5.0,1.0,1.0,6.0,6.0,,5.0,5.0,5.0,4.0,5.0,5.0,5.0,5.0,4.0,5.0,5.0,2.0,2.0,2.0,2.0,2.0,5.0,5.0,5.0,2.0,2.0,2.0,2.0,5.0,2.0,5.0,,6.0,4.0,2.0,4.0,6.0,1.0,,1.4,2.666667,2.0,4.0,4.333333,4.666667,4.0,4.8
93711,1055,2020-03-31 10:39:52,SME,44,Female,"College degree, bachelor, master",Some College or equivalent,Not employed,United States,yes,California,Married/cohabiting,1.0,Yes,Isolated,1.0,1.0,Program A,,No,2.0,1.0,5.0,5.0,5.0,1.0,5.0,5.0,2.0,2.0,2.0,2.0,3.0,5.0,6.0,8.0,9.0,9.0,5.0,8.0,8.0,5.0,6.0,5.0,5.0,,5.0,6.0,6.0,6.0,6.0,1.0,5.0,6.0,4.0,6.0,3.0,4.0,6.0,6.0,6.0,5.0,5.0,6.0,6.0,6.0,5.0,6.0,5.0,1.0,5.0,5.0,6.0,1.0,1.0,6.0,6.0,5.0,5.0,6.0,6.0,6.0,1.0,1.0,1.0,1.0,1.0,1.0,1.0,1.0,1.0,6.0,,6.0,6.0,6.0,6.0,6.0,6.0,6.0,6.0,6.0,6.0,5.0,5.0,6.0,5.0,5.0,6.0,1.0,1.0,5.0,5.0,6.0,6.0,6.0,6.0,6.0,6.0,,5.0,5.0,5.0,6.0,6.0,5.0,A mi lo que más me preocupa es la manera en que mi hijo con autismo lleve esta pandemia. Por su condición hay muchas cosas que han cambiado y que no entiende.,1.7,2.333333,3.666667,2.666667,5.666667,4.666667,4.666667,6.0
93747,2125,2020-03-31 10:54:51,EN,64,Female,"Some College, short continuing education or equivalent",Up to 12 years of school,Retired,United States,no,Providence,Married/cohabiting,2.0,Yes,Life carries on with minor changes,0.0,0.0,Program B,,Yes,1.0,2.0,3.0,3.0,4.0,4.0,5.0,4.0,3.0,3.0,1.0,5.0,1.0,7.0,10.0,5.0,7.0,1.0,0.0,3.0,4.0,6.0,6.0,6.0,6.0,1.0,6.0,6.0,6.0,5.0,5.0,6.0,6.0,6.0,6.0,4.0,6.0,6.0,2.0,4.0,6.0,4.0,1.0,6.0,6.0,4.0,4.0,6.0,6.0,99.0,6.0,99.0,6.0,6.0,1.0,6.0,99.0,1.0,6.0,6.0,6.0,5.0,99.0,99.0,1.0,4.0,6.0,6.0,5.0,1.0,6.0,99.0,,6.0,6.0,6.0,6.0,6.0,6.0,6.0,6.0,2.0,6.0,5.0,6.0,6.0,6.0,6.0,5.0,2.0,2.0,4.0,5.0,6.0,4.0,6.0,6.0,6.0,5.0,A,6.0,1.0,1.0,1.0,3.0,6.0,,2.4,2.333333,5.0,5.666667,4.666667,6.0,4.333333,5.6
93778,805,2020-03-31 10:30:16,EN,34,Female,"College degree, bachelor, master",College degree,Full time employed,United States,no,Michigan,Single,0.0,Yes,Isolated,0.0,0.0,,Program D,No,4.0,4.0,5.0,2.0,2.0,4.0,3.0,2.0,4.0,4.0,5.0,4.0,5.0,5.0,7.0,2.0,2.0,4.0,3.0,8.0,1.0,3.0,5.0,3.0,5.0,5.0,1.0,5.0,6.0,6.0,5.0,3.0,5.0,3.0,3.0,4.0,4.0,2.0,5.0,5.0,5.0,5.0,4.0,3.0,3.0,3.0,4.0,5.0,3.0,6.0,99.0,2.0,3.0,6.0,99.0,99.0,99.0,6.0,4.0,5.0,5.0,5.0,6.0,5.0,5.0,6.0,5.0,5.0,3.0,2.0,6.0,2.0,,5.0,3.0,4.0,3.0,4.0,4.0,4.0,3.0,4.0,5.0,2.0,1.0,4.0,1.0,4.0,5.0,5.0,4.0,4.0,4.0,5.0,4.0,4.0,5.0,1.0,2.0,Following the news about the coronavirus situation (non-government sources),2.0,4.0,5.0,2.0,6.0,3.0,,4.0,4.666667,3.0,2.666667,5.0,3.0,3.666667,3.9
93861,597,2020-03-31 10:20:34,EN,47,Female,"College degree, bachelor, master",College degree,Full time employed,United States,no,Kalamazoo,Married/cohabiting,0.0,No,Life carries on with minor changes,1.0,0.0,,Program C,No,1.0,3.0,5.0,4.0,3.0,3.0,3.0,3.0,4.0,2.0,2.0,1.0,4.0,5.0,9.0,1.0,4.0,4.0,4.0,5.0,1.0,6.0,6.0,6.0,6.0,6.0,0.0,5.0,5.0,5.0,2.0,2.0,3.0,5.0,6.0,3.0,6.0,5.0,1.0,5.0,6.0,6.0,4.0,5.0,4.0,5.0,2.0,5.0,3.0,5.0,99.0,99.0,4.0,5.0,99.0,99.0,99.0,6.0,6.0,6.0,6.0,5.0,99.0,6.0,2.0,1.0,2.0,4.0,1.0,1.0,6.0,5.0,,6.0,6.0,6.0,6.0,6.0,6.0,6.0,6.0,6.0,6.0,5.0,6.0,6.0,6.0,6.0,6.0,1.0,1.0,6.0,6.0,5.0,5.0,6.0,6.0,4.0,6.0,,5.0,4.0,4.0,4.0,5.0,2.0,,2.9,2.333333,5.0,5.666667,5.666667,4.0,5.0,6.0
93885,993,2020-03-31 10:24:46,EN,43,Female,"Some College, short continuing education or equivalent",Some College or equivalent,Part time employed,United States,no,Michigan,Married/cohabiting,3.0,Yes,Isolated,1.0,5.0,,Program D,No,2.0,2.0,3.0,5.0,3.0,1.0,5.0,4.0,2.0,1.0,2.0,1.0,3.0,5.0,8.0,1.0,4.0,2.0,9.0,8.0,0.0,5.0,5.0,5.0,6.0,1.0,0.0,6.0,5.0,6.0,2.0,2.0,5.0,3.0,2.0,6.0,4.0,3.0,5.0,2.0,4.0,1.0,1.0,4.0,5.0,5.0,1.0,5.0,1.0,99.0,5.0,99.0,1.0,4.0,2.0,1.0,1.0,6.0,1.0,4.0,6.0,4.0,99.0,3.0,2.0,1.0,1.0,2.0,2.0,1.0,3.0,1.0,,6.0,6.0,6.0,6.0,6.0,6.0,6.0,6.0,5.0,6.0,4.0,5.0,5.0,5.0,4.0,5.0,2.0,2.0,5.0,5.0,2.0,5.0,3.0,6.0,5.0,3.0,,4.0,4.0,2.0,4.0,5.0,5.0,,1.8,2.0,2.0,3.0,2.333333,5.0,5.333333,5.9
93922,1241,2020-04-01 10:26:31,EN,44,Male,"College degree, bachelor, master",College degree,Self-employed,United States,no,Michigan,Single,0.0,Yes,Isolated,0.0,0.0,Program B,,No,2.0,1.0,3.0,5.0,4.0,2.0,5.0,3.0,1.0,1.0,3.0,1.0,3.0,6.0,8.0,2.0,6.0,6.0,8.0,8.0,1.0,4.0,4.0,4.0,6.0,5.0,1.0,5.0,5.0,5.0,1.0,2.0,2.0,3.0,4.0,6.0,6.0,5.0,2.0,5.0,6.0,5.0,2.0,5.0,5.0,4.0,4.0,6.0,1.0,1.0,99.0,2.0,2.0,5.0,2.0,99.0,99.0,4.0,4.0,6.0,4.0,4.0,99.0,2.0,4.0,3.0,4.0,99.0,5.0,2.0,4.0,2.0,,6.0,6.0,6.0,5.0,6.0,5.0,6.0,4.0,5.0,6.0,1.0,2.0,6.0,1.0,5.0,5.0,4.0,4.0,5.0,5.0,4.0,6.0,5.0,5.0,6.0,1.0,,4.0,5.0,5.0,5.0,6.0,2.0,Medicating with marijuana,1.7,2.333333,2.666667,5.333333,5.333333,5.0,4.333333,5.5
93927,1748,2020-04-01 10:34:49,EN,65,Female,"College degree, bachelor, master",Some College or equivalent,Retired,United States,no,California,Married/cohabiting,0.0,Yes,Life carries on with minor changes,1.0,0.0,,Program C,No,2.0,2.0,2.0,4.0,4.0,3.0,4.0,4.0,2.0,2.0,2.0,3.0,3.0,7.0,9.0,2.0,2.0,3.0,6.0,6.0,,6.0,6.0,6.0,6.0,6.0,0.0,6.0,6.0,5.0,1.0,4.0,5.0,3.0,2.0,3.0,5.0,4.0,4.0,4.0,5.0,4.0,3.0,3.0,5.0,4.0,4.0,5.0,2.0,5.0,99.0,99.0,6.0,4.0,1.0,2.0,99.0,5.0,4.0,6.0,6.0,5.0,2.0,2.0,2.0,2.0,2.0,5.0,4.0,2.0,5.0,1.0,,5.0,5.0,5.0,5.0,6.0,5.0,5.0,6.0,5.0,4.0,5.0,4.0,5.0,2.0,4.0,5.0,5.0,2.0,5.0,3.0,5.0,4.0,4.0,5.0,1.0,5.0,,4.0,3.0,4.0,3.0,4.0,4.0,Having to disinfect foodstuffs prior to bringing into house. Just the overall level of biohazard precautions.,2.1,2.666667,3.0,4.0,4.333333,4.0,4.0,5.1
93935,1062,2020-03-31 10:22:43,EN,72,Male,"College degree, bachelor, master",Some College or equivalent,Retired,United States,no,Virginia,Married/cohabiting,0.0,Yes,Isolated,1.0,0.0,,Program D,No,3.0,4.0,3.0,4.0,2.0,3.0,4.0,2.0,5.0,3.0,1.0,1.0,3.0,5.0,7.0,0.0,0.0,2.0,1.0,5.0,0.0,5.0,5.0,4.0,5.0,6.0,1.0,5.0,4.0,5.0,3.0,3.0,5.0,4.0,3.0,4.0,2.0,3.0,4.0,4.0,5.0,4.0,4.0,4.0,4.0,4.0,4.0,5.0,6.0,1.0,1.0,2.0,5.0,3.0,1.0,2.0,2.0,6.0,2.0,6.0,6.0,5.0,4.0,1.0,1.0,4.0,4.0,2.0,4.0,4.0,5.0,5.0,Other people believing government lies,5.0,5.0,5.0,6.0,5.0,4.0,4.0,6.0,4.0,5.0,1.0,4.0,5.0,3.0,4.0,4.0,1.0,1.0,4.0,4.0,4.0,2.0,1.0,5.0,1.0,2.0,Mutual aid activities,4.0,5.0,6.0,4.0,4.0,4.0,,3.3,1.666667,3.333333,2.666667,4.333333,3.666667,4.0,4.9
93973,1129,2020-03-31 10:21:21,ZH-T,35,Male,PhD/Doctorate,Some College or equivalent,Student,United States,yes,Texas,Married/cohabiting,1.0,Yes,Isolated,0.0,0.0,Program A,,No,4.0,5.0,4.0,2.0,2.0,4.0,1.0,1.0,4.0,4.0,4.0,3.0,5.0,6.0,7.0,6.0,6.0,6.0,7.0,2.0,6.0,6.0,6.0,4.0,5.0,6.0,4.0,5.0,5.0,5.0,5.0,4.0,6.0,4.0,4.0,3.0,4.0,4.0,3.0,4.0,6.0,3.0,4.0,4.0,5.0,3.0,4.0,4.0,5.0,4.0,1.0,6.0,4.0,4.0,1.0,4.0,1.0,6.0,5.0,6.0,6.0,6.0,3.0,3.0,5.0,4.0,6.0,4.0,6.0,5.0,6.0,5.0,,,,,,,,,,,,5.0,5.0,5.0,4.0,4.0,3.0,4.0,4.0,4.0,,5.0,5.0,5.0,5.0,2.0,4.0,,4.0,5.0,4.0,4.0,4.0,3.0,,4.3,4.0,4.0,4.0,4.333333,4.0,3.333333,
93984,1048,2020-03-31 10:19:17,SME,51,Female,PhD/Doctorate,Up to 9 years of school,Full time employed,United States,yes,Denver,Married/cohabiting,0.0,Yes,Isolated,1.0,0.0,,Program C,Not sure,2.0,2.0,4.0,4.0,3.0,3.0,4.0,4.0,2.0,1.0,1.0,1.0,3.0,9.0,9.0,9.0,9.0,9.0,9.0,9.0,8.0,4.0,6.0,4.0,6.0,6.0,1.0,6.0,6.0,6.0,2.0,4.0,1.0,6.0,5.0,5.0,4.0,5.0,4.0,4.0,6.0,4.0,2.0,5.0,6.0,5.0,1.0,4.0,99.0,6.0,99.0,4.0,1.0,4.0,1.0,1.0,99.0,6.0,6.0,5.0,5.0,6.0,3.0,4.0,2.0,2.0,5.0,1.0,1.0,1.0,4.0,4.0,,5.0,6.0,5.0,5.0,5.0,5.0,5.0,6.0,5.0,5.0,5.0,5.0,5.0,5.0,5.0,5.0,1.0,1.0,4.0,4.0,3.0,5.0,3.0,2.0,1.0,5.0,correr en el parque o algun otro tipo de actividad fisica,6.0,5.0,6.0,4.0,6.0,2.0,,2.3,1.666667,4.333333,4.0,4.666667,5.333333,5.0,5.2
93986,797,2020-03-31 10:15:00,EN,45,Female,"Some College, short continuing education or equivalent",College degree,Not employed,United States,no,Michigan,Married/cohabiting,2.0,Yes,Isolated,1.0,2.0,Program A,,No,2.0,2.0,3.0,3.0,3.0,3.0,3.0,4.0,3.0,1.0,1.0,1.0,5.0,3.0,6.0,2.0,5.0,7.0,6.0,6.0,2.0,5.0,6.0,5.0,6.0,6.0,0.0,5.0,6.0,6.0,6.0,4.0,4.0,3.0,4.0,4.0,6.0,3.0,5.0,3.0,5.0,4.0,3.0,5.0,6.0,5.0,5.0,6.0,99.0,99.0,6.0,5.0,6.0,3.0,99.0,2.0,4.0,6.0,2.0,6.0,5.0,5.0,99.0,99.0,5.0,3.0,3.0,6.0,6.0,5.0,6.0,2.0,,5.0,5.0,5.0,5.0,5.0,5.0,5.0,5.0,5.0,5.0,2.0,3.0,5.0,2.0,5.0,5.0,5.0,4.0,6.0,2.0,3.0,3.0,4.0,6.0,1.0,4.0,,5.0,5.0,5.0,3.0,5.0,3.0,,2.5,2.333333,3.333333,3.666667,4.0,5.0,4.333333,5.0
94121,2186,2020-03-31 10:28:17,EN,42,Female,"College degree, bachelor, master",Some College or equivalent,Part time employed,United States,no,Florida,Married/cohabiting,0.0,Yes,Isolated,1.0,0.0,,Program D,No,3.0,3.0,4.0,3.0,2.0,4.0,4.0,2.0,3.0,3.0,2.0,2.0,5.0,5.0,8.0,2.0,7.0,5.0,3.0,8.0,4.0,3.0,5.0,4.0,6.0,6.0,2.0,5.0,6.0,6.0,2.0,2.0,6.0,5.0,4.0,4.0,3.0,3.0,5.0,3.0,6.0,3.0,2.0,5.0,6.0,5.0,4.0,5.0,6.0,4.0,99.0,6.0,4.0,6.0,99.0,2.0,99.0,5.0,2.0,3.0,5.0,4.0,1.0,3.0,2.0,4.0,5.0,2.0,3.0,2.0,5.0,5.0,,6.0,6.0,6.0,5.0,6.0,5.0,6.0,6.0,5.0,6.0,4.0,5.0,5.0,5.0,5.0,4.0,5.0,5.0,5.0,5.0,5.0,4.0,5.0,5.0,5.0,5.0,,5.0,6.0,3.0,5.0,5.0,5.0,,3.3,3.0,4.0,2.666667,4.0,5.333333,4.333333,5.7
94242,867,2020-03-31 09:58:37,EN,41,Female,Up to 9 years of school,,Full time employed,United States,no,MI,Single,0.0,No,Isolated,1.0,0.0,Program A,,No,5.0,3.0,5.0,2.0,3.0,4.0,3.0,3.0,3.0,4.0,4.0,1.0,5.0,4.0,6.0,1.0,3.0,3.0,1.0,1.0,0.0,5.0,6.0,6.0,6.0,4.0,0.0,6.0,6.0,6.0,3.0,2.0,6.0,5.0,6.0,3.0,5.0,3.0,5.0,5.0,6.0,4.0,4.0,3.0,5.0,5.0,5.0,6.0,99.0,99.0,99.0,2.0,4.0,4.0,99.0,6.0,99.0,2.0,6.0,4.0,6.0,5.0,2.0,2.0,6.0,5.0,1.0,1.0,2.0,1.0,6.0,99.0,,6.0,4.0,1.0,4.0,6.0,3.0,6.0,6.0,5.0,6.0,1.0,6.0,5.0,4.0,5.0,6.0,3.0,3.0,5.0,1.0,5.0,5.0,3.0,2.0,1.0,2.0,,6.0,5.0,4.0,3.0,6.0,1.0,I have a psychotherapist that I have weekly teleconferences with. This has proven to be invaluable for my mental health.,3.7,3.333333,5.0,3.333333,5.0,3.666667,4.333333,4.7
94267,1052,2020-03-31 09:59:53,EN,27,Female,"College degree, bachelor, master",College degree,Full time employed,United States,no,Michigan,Married/cohabiting,0.0,Yes,Isolated,2.0,0.0,,Program D,No,3.0,4.0,5.0,3.0,3.0,2.0,3.0,3.0,3.0,2.0,3.0,3.0,4.0,8.0,9.0,4.0,7.0,7.0,6.0,9.0,4.0,5.0,6.0,6.0,6.0,6.0,2.0,5.0,5.0,5.0,2.0,3.0,3.0,5.0,5.0,4.0,5.0,3.0,4.0,5.0,6.0,5.0,2.0,5.0,6.0,5.0,3.0,5.0,4.0,5.0,99.0,5.0,3.0,5.0,3.0,2.0,99.0,4.0,4.0,6.0,6.0,5.0,4.0,5.0,99.0,4.0,5.0,5.0,4.0,3.0,5.0,3.0,,5.0,5.0,3.0,4.0,6.0,4.0,6.0,5.0,4.0,5.0,4.0,2.0,4.0,1.0,3.0,6.0,1.0,1.0,6.0,6.0,4.0,5.0,3.0,5.0,4.0,4.0,,5.0,3.0,5.0,4.0,2.0,2.0,,3.1,3.333333,4.333333,3.666667,5.333333,5.333333,4.666667,4.7
94305,859,2020-03-31 09:53:47,EN,40,Female,"College degree, bachelor, master",Up to 12 years of school,Full time employed,United States,yes,Illinois,Single,0.0,Yes,Isolated,0.0,0.0,Program B,,No,1.0,1.0,1.0,5.0,5.0,1.0,5.0,5.0,1.0,1.0,2.0,1.0,2.0,3.0,8.0,5.0,10.0,0.0,2.0,2.0,0.0,4.0,4.0,4.0,5.0,5.0,0.0,6.0,6.0,6.0,1.0,5.0,1.0,2.0,1.0,6.0,1.0,2.0,4.0,5.0,6.0,4.0,4.0,4.0,4.0,6.0,1.0,6.0,1.0,1.0,99.0,1.0,1.0,1.0,99.0,99.0,99.0,1.0,1.0,1.0,3.0,2.0,1.0,1.0,1.0,1.0,2.0,1.0,1.0,1.0,1.0,1.0,,6.0,6.0,5.0,6.0,6.0,5.0,6.0,6.0,6.0,6.0,5.0,1.0,6.0,1.0,3.0,5.0,1.0,1.0,6.0,2.0,2.0,6.0,6.0,6.0,1.0,3.0,,3.0,5.0,5.0,3.0,3.0,3.0,"Pet(s) are very helpful as emotional support, t's not just humans that might help!  ",1.0,1.666667,1.333333,2.0,5.0,3.666667,6.0,5.8
94330,124,2020-04-01 09:39:46,EN,35,Male,"Some College, short continuing education or equivalent",Some College or equivalent,Full time employed,United States,no,Illinois,Married/cohabiting,0.0,No,Isolated,2.0,0.0,Program A,,,,,,,,,,,,,,,,,,,,,,,,,,,,,,,,,,,,,,,,,,,,,,,,,,,,,,,,,,,,,,,,,,,,,,,,,,,,,,,,,,,,,,,,,,,,,,,,,,,,,,,,,,,,,,,,,,,,,
94341,311,2020-04-01 09:41:27,SME,57,Male,"Some College, short continuing education or equivalent",Some College or equivalent,Full time employed,United States,yes,Nebrazca,Divorced/widowed,1.0,Yes,Life carries on with minor changes,0.0,0.0,,,,4.0,4.0,4.0,4.0,4.0,4.0,4.0,3.0,3.0,3.0,4.0,4.0,4.0,,,,,,,,,,,,,,,,,,,,,,,,,,,,,,,,,,,,,,,,,,,,,,,,,,,,,,,,,,,,,,,,,,,,,,,,,,,,,,,,,,,,,,,,,,,,,,,3.1,4.0,,,,,,
94347,782,2020-03-31 09:48:43,EN,36,Female,,College degree,Self-employed,United States,no,MI,Married/cohabiting,0.0,Yes,Life carries on with minor changes,1.0,,,Program C,Yes,2.0,2.0,3.0,3.0,3.0,1.0,5.0,5.0,4.0,1.0,1.0,1.0,2.0,2.0,7.0,1.0,3.0,3.0,0.0,6.0,0.0,6.0,6.0,6.0,6.0,6.0,0.0,6.0,5.0,6.0,1.0,2.0,5.0,2.0,1.0,4.0,3.0,4.0,4.0,5.0,6.0,6.0,4.0,4.0,5.0,6.0,5.0,6.0,1.0,99.0,99.0,99.0,3.0,3.0,1.0,1.0,99.0,1.0,2.0,6.0,6.0,5.0,1.0,1.0,1.0,3.0,1.0,1.0,4.0,1.0,1.0,1.0,Distressed about not knowing what precautions other people are taking and how seriously they're taking this situation.,6.0,6.0,6.0,6.0,6.0,6.0,6.0,6.0,6.0,6.0,1.0,6.0,5.0,1.0,1.0,6.0,5.0,5.0,5.0,5.0,5.0,1.0,1.0,5.0,1.0,1.0,,1.0,6.0,6.0,6.0,6.0,1.0,,2.1,1.333333,2.0,3.333333,5.666667,4.0,4.666667,6.0
94386,1019,2020-03-31 09:50:40,BG,25,Male,"College degree, bachelor, master",Up to 12 years of school,Student,United States,yes,Arizona,Single,0.0,Yes,Life carries on with minor changes,0.0,0.0,,Program D,Not sure,2.0,2.0,2.0,4.0,3.0,3.0,4.0,2.0,2.0,1.0,4.0,1.0,1.0,6.0,8.0,2.0,7.0,4.0,0.0,1.0,2.0,4.0,6.0,6.0,5.0,5.0,2.0,4.0,4.0,2.0,4.0,3.0,1.0,2.0,4.0,4.0,6.0,3.0,3.0,5.0,6.0,6.0,3.0,5.0,6.0,6.0,2.0,6.0,4.0,1.0,1.0,4.0,4.0,6.0,1.0,2.0,1.0,5.0,2.0,3.0,2.0,6.0,4.0,2.0,5.0,2.0,2.0,4.0,4.0,3.0,6.0,6.0,,5.0,5.0,2.0,4.0,5.0,4.0,5.0,5.0,3.0,4.0,1.0,3.0,6.0,4.0,2.0,4.0,1.0,1.0,4.0,4.0,1.0,2.0,5.0,6.0,1.0,1.0,,1.0,2.0,1.0,4.0,1.0,1.0,,2.3,2.0,3.0,4.333333,5.666667,5.0,5.666667,4.2
94520,456,2020-03-31 09:31:36,EN,29,Female,"College degree, bachelor, master",PhD/Doctorate,Full time employed,United States,no,Virginia,Single,0.0,Yes,Isolated,4.0,0.0,,Program C,No,5.0,5.0,5.0,3.0,2.0,3.0,3.0,3.0,4.0,4.0,3.0,3.0,5.0,6.0,10.0,2.0,3.0,5.0,5.0,6.0,1.0,5.0,6.0,6.0,6.0,6.0,0.0,4.0,5.0,5.0,2.0,2.0,3.0,6.0,5.0,2.0,5.0,6.0,2.0,3.0,3.0,5.0,2.0,5.0,6.0,3.0,2.0,3.0,4.0,6.0,99.0,6.0,5.0,3.0,99.0,2.0,99.0,6.0,4.0,99.0,6.0,99.0,5.0,2.0,2.0,5.0,4.0,2.0,99.0,4.0,6.0,2.0,,6.0,5.0,5.0,6.0,5.0,6.0,6.0,6.0,5.0,6.0,2.0,6.0,6.0,3.0,6.0,1.0,1.0,2.0,4.0,6.0,3.0,3.0,3.0,5.0,3.0,2.0,,3.0,6.0,6.0,6.0,2.0,2.0,,3.9,3.666667,5.333333,5.333333,3.666667,5.333333,3.666667,5.6
94615,765,2020-04-01 09:30:06,EN,38,Male,"College degree, bachelor, master",Up to 12 years of school,Full time employed,United States,no,Florida,Single,0.0,Yes,Isolated,2.0,0.0,Program A,,No,1.0,5.0,3.0,5.0,3.0,1.0,5.0,5.0,1.0,1.0,1.0,1.0,1.0,3.0,8.0,4.0,2.0,7.0,3.0,3.0,3.0,5.0,1.0,5.0,5.0,5.0,0.0,6.0,6.0,5.0,1.0,3.0,2.0,3.0,2.0,3.0,3.0,4.0,4.0,5.0,5.0,5.0,5.0,3.0,4.0,5.0,1.0,5.0,2.0,1.0,99.0,99.0,2.0,1.0,99.0,2.0,99.0,5.0,4.0,5.0,5.0,2.0,3.0,1.0,1.0,2.0,1.0,2.0,2.0,1.0,2.0,1.0,,3.0,5.0,4.0,4.0,2.0,5.0,5.0,2.0,5.0,2.0,3.0,2.0,1.0,1.0,1.0,4.0,5.0,5.0,5.0,3.0,6.0,5.0,5.0,5.0,1.0,4.0,,4.0,1.0,1.0,2.0,1.0,2.0,I was already a news junky before. Made preparations for covid in January of this year.,1.8,1.0,3.0,3.333333,5.0,3.0,5.333333,3.7
94675,1371,2020-03-31 09:35:44,EN,50,Female,"Some College, short continuing education or equivalent",Some College or equivalent,Part time employed,United States,no,Florida,Married/cohabiting,0.0,Yes,Isolated,2.0,0.0,Program A,,No,4.0,4.0,5.0,2.0,3.0,3.0,2.0,2.0,2.0,3.0,5.0,4.0,5.0,6.0,9.0,0.0,5.0,5.0,0.0,10.0,0.0,6.0,6.0,6.0,6.0,6.0,0.0,5.0,6.0,6.0,1.0,2.0,3.0,6.0,6.0,4.0,6.0,5.0,3.0,5.0,5.0,4.0,1.0,4.0,6.0,4.0,1.0,5.0,6.0,99.0,99.0,6.0,6.0,6.0,4.0,2.0,99.0,6.0,4.0,6.0,6.0,5.0,99.0,6.0,5.0,5.0,5.0,2.0,4.0,2.0,5.0,2.0,,6.0,6.0,6.0,6.0,6.0,6.0,6.0,6.0,6.0,6.0,2.0,2.0,6.0,1.0,5.0,5.0,1.0,1.0,4.0,5.0,5.0,4.0,5.0,6.0,6.0,1.0,,2.0,5.0,4.0,4.0,4.0,1.0,"The fact that the USA does not have healthcare available to all citizens is a serious concern, in addition to the fact that most people do not have sick pay or enough savings to be out of work due to this crises. I fear people are going about their daily work related activities because they can not afford to stay home.",3.6,4.666667,5.0,5.0,4.666667,5.333333,5.0,6.0
94679,6156,2020-04-01 10:55:22,EN,51,Female,"College degree, bachelor, master",College degree,Part time employed,United States,no,Mi,Married/cohabiting,1.0,Yes,Life carries on with minor changes,3.0,1.0,,,,,,,,,,,,,,,,,,,,,,,,,,,,,,,,,,,,,,,,,,,,,,,,,,,,,,,,,,,,,,,,,,,,,,,,,,,,,,,,,,,,,,,,,,,,,,,,,,,,,,,,,,,,,,,,,,,,,,
94716,987,2020-03-31 09:26:10,FR,65,Male,PhD/Doctorate,College degree,Full time employed,United States,no,ouest,Married/cohabiting,2.0,Yes,Life carries on with minor changes,,,,Program D,No,2.0,3.0,2.0,4.0,3.0,2.0,3.0,3.0,3.0,2.0,3.0,2.0,3.0,5.0,7.0,1.0,4.0,4.0,3.0,9.0,1.0,5.0,5.0,5.0,6.0,5.0,1.0,6.0,6.0,5.0,4.0,3.0,4.0,2.0,3.0,5.0,5.0,3.0,4.0,6.0,6.0,5.0,2.0,4.0,5.0,3.0,3.0,5.0,3.0,3.0,3.0,3.0,3.0,3.0,2.0,4.0,99.0,4.0,3.0,4.0,5.0,4.0,4.0,3.0,4.0,3.0,4.0,3.0,3.0,3.0,4.0,4.0,,3.0,4.0,4.0,3.0,5.0,5.0,2.0,4.0,5.0,3.0,1.0,5.0,5.0,3.0,5.0,4.0,2.0,2.0,4.0,4.0,4.0,3.0,5.0,5.0,2.0,5.0,,2.0,4.0,4.0,4.0,3.0,4.0,,2.5,2.666667,2.333333,3.666667,5.666667,4.666667,4.0,3.8
94763,573,2020-03-31 09:16:24,EN,46,Female,"College degree, bachelor, master",College degree,Full time employed,United States,no,Michigan,Married/cohabiting,1.0,Not sure,Isolated,1.0,1.0,,Program D,No,4.0,3.0,4.0,3.0,3.0,3.0,3.0,2.0,4.0,3.0,1.0,2.0,4.0,7.0,9.0,3.0,3.0,5.0,7.0,8.0,1.0,3.0,4.0,3.0,6.0,6.0,0.0,6.0,5.0,6.0,2.0,2.0,2.0,4.0,5.0,4.0,6.0,6.0,1.0,4.0,5.0,2.0,2.0,4.0,5.0,4.0,2.0,6.0,2.0,4.0,6.0,2.0,3.0,5.0,2.0,4.0,6.0,6.0,2.0,3.0,4.0,2.0,5.0,6.0,2.0,2.0,2.0,2.0,1.0,1.0,5.0,2.0,,5.0,5.0,5.0,5.0,5.0,5.0,5.0,5.0,5.0,5.0,2.0,2.0,5.0,4.0,4.0,5.0,1.0,1.0,5.0,2.0,3.0,3.0,2.0,3.0,2.0,4.0,,2.0,4.0,1.0,1.0,3.0,2.0,,3.4,2.333333,4.0,6.0,3.666667,4.666667,5.0,5.0
94802,1472,2020-03-31 09:28:55,EN,69,Female,"College degree, bachelor, master",Up to 12 years of school,Retired,United States,no,Ohio,Married/cohabiting,1.0,Yes,Isolated,1.0,0.0,,Program C,No,2.0,3.0,5.0,5.0,4.0,1.0,5.0,5.0,3.0,1.0,1.0,1.0,5.0,5.0,9.0,0.0,6.0,8.0,8.0,10.0,0.0,6.0,6.0,6.0,6.0,6.0,0.0,6.0,6.0,6.0,1.0,2.0,6.0,5.0,2.0,5.0,4.0,2.0,6.0,4.0,6.0,3.0,1.0,4.0,6.0,5.0,1.0,6.0,6.0,99.0,99.0,99.0,4.0,1.0,1.0,1.0,99.0,6.0,6.0,6.0,6.0,5.0,99.0,1.0,1.0,1.0,1.0,1.0,5.0,1.0,6.0,1.0,President Trump is killing our people.,5.0,6.0,6.0,6.0,6.0,5.0,6.0,6.0,5.0,5.0,2.0,1.0,6.0,1.0,6.0,6.0,1.0,1.0,5.0,1.0,6.0,6.0,1.0,6.0,1.0,5.0,,6.0,6.0,5.0,2.0,6.0,4.0,"Concerned that gun stores are considered an essential business. Concerned that Trump has praised an unproven drug to treat the virus while those who need the drug for proven effects on their disease cant get the drug. Trump using classic abusive behavior towards government officials, media, scientists, healthcare workers and others.",2.0,2.333333,3.0,2.333333,4.333333,5.333333,5.666667,5.6
94844,1159,2020-03-31 09:21:44,EN,28,Female,"College degree, bachelor, master",PhD/Doctorate,Student,United States,no,Michigan,Other or would rather not say,0.0,No,Isolated,0.0,,Program B,,Not sure,2.0,2.0,4.0,3.0,3.0,3.0,4.0,3.0,2.0,3.0,3.0,2.0,3.0,7.0,8.0,3.0,1.0,10.0,,9.0,,4.0,5.0,5.0,6.0,6.0,0.0,4.0,2.0,2.0,1.0,1.0,4.0,4.0,5.0,3.0,4.0,2.0,4.0,2.0,4.0,4.0,4.0,1.0,4.0,4.0,3.0,3.0,1.0,1.0,1.0,4.0,1.0,3.0,2.0,1.0,1.0,1.0,6.0,4.0,6.0,6.0,1.0,2.0,2.0,5.0,4.0,3.0,4.0,4.0,5.0,1.0,,5.0,5.0,2.0,5.0,5.0,3.0,5.0,6.0,3.0,5.0,3.0,1.0,5.0,1.0,1.0,4.0,1.0,1.0,2.0,2.0,4.0,1.0,2.0,3.0,1.0,3.0,,4.0,4.0,4.0,4.0,4.0,4.0,It's distressing that work/school continues as normal when this is an impending disaster.,2.7,2.666667,4.333333,3.0,3.333333,2.666667,3.666667,4.4
94867,841,2020-03-31 09:15:19,EN,38,Female,"College degree, bachelor, master",College degree,Full time employed,United States,no,New Hampshire,Married/cohabiting,2.0,Yes,Isolated,1.0,2.0,,Program D,No,2.0,2.0,2.0,4.0,3.0,1.0,2.0,4.0,2.0,1.0,4.0,3.0,4.0,6.0,9.0,5.0,9.0,8.0,6.0,9.0,6.0,4.0,5.0,6.0,4.0,4.0,3.0,5.0,5.0,4.0,4.0,6.0,2.0,4.0,5.0,5.0,3.0,2.0,5.0,4.0,2.0,4.0,1.0,5.0,5.0,5.0,4.0,5.0,5.0,99.0,5.0,3.0,4.0,5.0,3.0,5.0,2.0,5.0,4.0,4.0,4.0,5.0,99.0,5.0,5.0,3.0,4.0,4.0,5.0,99.0,5.0,99.0,,5.0,5.0,5.0,5.0,5.0,5.0,5.0,5.0,5.0,5.0,3.0,5.0,5.0,5.0,5.0,3.0,4.0,4.0,4.0,5.0,3.0,5.0,4.0,4.0,3.0,3.0,,2.0,2.0,2.0,3.0,4.0,2.0,,2.1,3.666667,3.666667,2.333333,3.333333,5.333333,4.333333,5.0
94951,545,2020-04-01 09:05:58,EN,36,Female,"College degree, bachelor, master",College degree,Part time employed,United States,no,Virginia,Married/cohabiting,2.0,Yes,Isolated,1.0,2.0,,Program D,Yes,4.0,4.0,4.0,3.0,2.0,4.0,2.0,2.0,5.0,3.0,3.0,3.0,5.0,3.0,7.0,2.0,3.0,2.0,1.0,5.0,2.0,5.0,5.0,5.0,6.0,6.0,3.0,5.0,6.0,6.0,4.0,2.0,6.0,6.0,6.0,4.0,6.0,6.0,3.0,5.0,5.0,6.0,3.0,5.0,6.0,3.0,3.0,5.0,,,,,,,,,,,,,,,,,,,,,,,,,,,,,,,,,,,,,,,,,,,,,,,,,,,,,,,,,,,,3.9,3.666667,5.0,5.333333,5.333333,5.0,4.0,
94958,1334,2020-04-01 09:18:19,EN,24,Female,"Some College, short continuing education or equivalent",Up to 12 years of school,Not employed,United States,no,TEXAS,Married/cohabiting,2.0,Yes,Life carries on with minor changes,1.0,2.0,,Program D,No,3.0,2.0,3.0,4.0,3.0,1.0,4.0,2.0,2.0,1.0,3.0,2.0,4.0,2.0,8.0,5.0,7.0,1.0,9.0,6.0,8.0,2.0,5.0,4.0,6.0,6.0,5.0,5.0,3.0,3.0,2.0,2.0,4.0,3.0,4.0,5.0,5.0,4.0,2.0,6.0,6.0,6.0,2.0,5.0,5.0,5.0,2.0,6.0,5.0,2.0,2.0,2.0,4.0,4.0,6.0,5.0,5.0,6.0,4.0,5.0,4.0,5.0,2.0,6.0,4.0,4.0,2.0,2.0,5.0,3.0,5.0,2.0,,6.0,6.0,6.0,6.0,5.0,5.0,6.0,6.0,5.0,6.0,5.0,2.0,5.0,2.0,5.0,1.0,5.0,2.0,5.0,5.0,5.0,5.0,2.0,5.0,6.0,5.0,,4.0,5.0,5.0,3.0,2.0,5.0,,2.3,3.0,3.0,4.666667,6.0,5.0,5.333333,5.7
94993,3559,2020-04-01 09:53:05,EN,58,Female,Up to 12 years of school,Up to 12 years of school,Retired,United States,no,PA,Married/cohabiting,1.0,No,Life carries on with minor changes,1.0,0.0,Program A,,Yes,3.0,2.0,3.0,4.0,3.0,1.0,2.0,4.0,3.0,2.0,1.0,2.0,4.0,7.0,10.0,6.0,7.0,9.0,8.0,9.0,8.0,4.0,4.0,4.0,4.0,4.0,5.0,6.0,5.0,6.0,6.0,5.0,4.0,4.0,5.0,5.0,6.0,6.0,2.0,4.0,5.0,4.0,5.0,3.0,6.0,5.0,3.0,4.0,1.0,99.0,99.0,99.0,5.0,5.0,2.0,3.0,99.0,5.0,4.0,4.0,4.0,5.0,1.0,5.0,99.0,1.0,6.0,4.0,2.0,1.0,6.0,99.0,,6.0,6.0,5.0,4.0,6.0,2.0,6.0,6.0,6.0,6.0,5.0,5.0,6.0,1.0,1.0,5.0,5.0,6.0,5.0,4.0,5.0,5.0,1.0,5.0,5.0,4.0,,5.0,5.0,5.0,5.0,5.0,5.0,,2.5,2.333333,3.666667,5.666667,4.333333,3.666667,4.333333,5.3
95005,823,2020-03-31 09:06:28,EN,36,Female,PhD/Doctorate,Up to 12 years of school,Full time employed,United States,no,Colorado,Married/cohabiting,2.0,Yes,Isolated,2.0,2.0,,Program D,No,3.0,3.0,4.0,4.0,4.0,3.0,3.0,4.0,3.0,2.0,5.0,3.0,5.0,6.0,8.0,2.0,2.0,7.0,2.0,7.0,1.0,5.0,6.0,4.0,6.0,6.0,0.0,6.0,6.0,5.0,2.0,3.0,2.0,4.0,5.0,6.0,4.0,5.0,2.0,3.0,4.0,3.0,3.0,5.0,4.0,5.0,2.0,5.0,1.0,1.0,2.0,2.0,2.0,4.0,1.0,1.0,5.0,5.0,2.0,5.0,5.0,6.0,1.0,1.0,1.0,5.0,6.0,2.0,3.0,1.0,1.0,3.0,I have a toddler and husband (who is essential for work) who have lung conditions. I have an elderly uncle showing symptoms yesterday. I am extremely concerned over their health. It should be noted for this study that I am in public health and an epidemiologist.,6.0,5.0,2.0,5.0,6.0,5.0,6.0,6.0,5.0,6.0,2.0,1.0,5.0,1.0,4.0,1.0,1.0,1.0,5.0,5.0,3.0,4.0,2.0,5.0,1.0,5.0,,1.0,5.0,6.0,2.0,1.0,2.0,It should be noted for this study that I am in public health and an epidemiologist. I have been working to respond to this emergency as part of my work.,2.7,4.333333,3.333333,4.666667,3.333333,4.333333,5.0,5.2
95020,825,2020-03-31 09:05:28,EN,31,Female,"College degree, bachelor, master",Up to 12 years of school,Full time employed,United States,no,FLORIDA,Single,0.0,Yes,Life carries on with minor changes,1.0,0.0,Program A,,No,3.0,4.0,3.0,4.0,3.0,3.0,4.0,4.0,3.0,2.0,2.0,2.0,3.0,7.0,10.0,5.0,5.0,5.0,3.0,3.0,1.0,3.0,5.0,5.0,5.0,5.0,3.0,6.0,6.0,6.0,5.0,5.0,4.0,5.0,4.0,4.0,5.0,4.0,3.0,3.0,5.0,3.0,2.0,5.0,5.0,5.0,2.0,5.0,2.0,2.0,1.0,3.0,5.0,4.0,1.0,3.0,1.0,6.0,2.0,4.0,4.0,6.0,2.0,2.0,2.0,2.0,5.0,2.0,2.0,1.0,5.0,2.0,,6.0,5.0,6.0,6.0,6.0,5.0,6.0,6.0,4.0,,3.0,4.0,5.0,2.0,4.0,5.0,5.0,5.0,6.0,3.0,5.0,3.0,3.0,5.0,1.0,2.0,,5.0,5.0,5.0,4.0,5.0,1.0,,2.7,2.333333,4.0,4.333333,3.666667,5.0,5.0,5.555556
95036,2324,2020-03-31 09:29:04,SME,31,Female,PhD/Doctorate,College degree,Full time employed,United States,yes,Maryland,Single,0.0,Yes,Isolated,1.0,0.0,Program A,,No,3.0,3.0,5.0,4.0,2.0,2.0,4.0,2.0,3.0,1.0,4.0,5.0,5.0,9.0,10.0,1.0,5.0,3.0,9.0,9.0,2.0,6.0,6.0,6.0,6.0,6.0,0.0,6.0,6.0,6.0,1.0,5.0,3.0,5.0,4.0,5.0,4.0,5.0,3.0,5.0,6.0,5.0,2.0,5.0,6.0,6.0,2.0,6.0,2.0,6.0,99.0,4.0,4.0,2.0,1.0,1.0,99.0,5.0,6.0,6.0,6.0,6.0,4.0,4.0,1.0,4.0,4.0,5.0,5.0,2.0,4.0,5.0,,6.0,6.0,6.0,6.0,6.0,6.0,6.0,6.0,6.0,6.0,2.0,1.0,6.0,1.0,6.0,6.0,2.0,4.0,5.0,5.0,6.0,3.0,6.0,5.0,1.0,2.0,,6.0,6.0,6.0,1.0,5.0,1.0,,2.9,4.666667,3.666667,4.333333,5.333333,5.333333,5.666667,6.0
95041,8121,2020-04-01 11:05:31,EN,32,Female,"Some College, short continuing education or equivalent",College degree,Full time employed,United States,no,MI,Single,0.0,Yes,Isolated,0.0,0.0,Program A,,No,2.0,3.0,4.0,4.0,3.0,2.0,4.0,3.0,4.0,3.0,5.0,4.0,4.0,5.0,8.0,6.0,5.0,6.0,6.0,8.0,5.0,4.0,6.0,6.0,5.0,5.0,3.0,5.0,6.0,5.0,2.0,3.0,5.0,4.0,3.0,6.0,5.0,6.0,2.0,5.0,5.0,5.0,1.0,5.0,6.0,5.0,4.0,5.0,5.0,5.0,99.0,6.0,4.0,5.0,99.0,99.0,99.0,5.0,4.0,5.0,5.0,5.0,5.0,4.0,5.0,6.0,6.0,99.0,3.0,4.0,5.0,4.0,,6.0,6.0,6.0,6.0,6.0,6.0,6.0,6.0,6.0,6.0,3.0,5.0,6.0,4.0,5.0,4.0,4.0,4.0,5.0,4.0,4.0,6.0,4.0,5.0,2.0,5.0,,6.0,6.0,6.0,5.0,5.0,4.0,,2.8,4.333333,2.666667,5.333333,5.0,5.666667,4.333333,6.0
95048,921,2020-03-31 09:05:14,EN,40,Male,"Some College, short continuing education or equivalent",Some College or equivalent,Part time employed,United States,no,Michigan,Single,1.0,Yes,Life carries on with minor changes,,,Program A,,No,3.0,3.0,3.0,4.0,3.0,3.0,4.0,4.0,2.0,3.0,3.0,4.0,3.0,5.0,8.0,3.0,5.0,8.0,10.0,8.0,2.0,4.0,6.0,5.0,6.0,6.0,2.0,5.0,4.0,5.0,2.0,3.0,5.0,4.0,4.0,4.0,4.0,4.0,4.0,4.0,6.0,5.0,5.0,4.0,5.0,5.0,3.0,6.0,6.0,5.0,6.0,6.0,5.0,6.0,99.0,99.0,4.0,6.0,6.0,6.0,6.0,6.0,99.0,5.0,4.0,4.0,5.0,6.0,4.0,2.0,6.0,2.0,,5.0,5.0,5.0,5.0,5.0,4.0,5.0,5.0,5.0,5.0,1.0,2.0,5.0,4.0,5.0,4.0,2.0,2.0,4.0,3.0,5.0,4.0,4.0,5.0,2.0,4.0,"This section could use a ""not applicable to my situation""as I don't play videogames",3.0,3.0,4.0,4.0,4.0,3.0,I'm a Front Line worker in the Cannabis Industry and the fact that places can stay open without providing even the minimum of protection and are not required to offer benefits or hazard pay is rediculous and poses a serious vector. Provisioning Center's now have to go curbside which causes a security risk. The fact you can walk into a CVS and buy a Snickers while a person is buying antibiotics but my patients have to sit in a parking lot is rediculous.,2.6,3.333333,3.666667,3.666667,5.0,3.666667,5.0,4.9
95060,428,2020-04-01 08:56:03,EN,59,Female,"College degree, bachelor, master",Up to 9 years of school,Full time employed,United States,no,California,Married/cohabiting,0.0,Yes,Life carries on with minor changes,,0.0,,Program D,,,,,,,,,,,,,,,,,,,,,,,,,,,,,,,,,,,,,,,,,,,,,,,,,,,,,,,,,,,,,,,,,,,,,,,,,,,,,,,,,,,,,,,,,,,,,,,,,,,,,,,,,,,,,,,,,,,,
95115,627,2020-03-31 08:55:14,EN,40,Female,"College degree, bachelor, master",College degree,Self-employed,United States,no,New York,Single,0.0,Yes,Isolated,2.0,0.0,,Program C,No,2.0,2.0,4.0,4.0,3.0,3.0,4.0,3.0,3.0,2.0,2.0,4.0,5.0,5.0,8.0,3.0,3.0,8.0,4.0,6.0,1.0,4.0,6.0,5.0,6.0,6.0,0.0,6.0,6.0,6.0,2.0,2.0,3.0,5.0,5.0,4.0,4.0,3.0,5.0,5.0,6.0,5.0,2.0,5.0,5.0,4.0,4.0,5.0,2.0,5.0,99.0,6.0,5.0,6.0,1.0,4.0,99.0,5.0,4.0,6.0,6.0,4.0,5.0,6.0,4.0,6.0,6.0,2.0,5.0,2.0,6.0,6.0,,6.0,5.0,3.0,4.0,4.0,4.0,5.0,5.0,5.0,5.0,4.0,5.0,5.0,1.0,3.0,5.0,1.0,5.0,3.0,3.0,3.0,5.0,4.0,4.0,1.0,4.0,,3.0,5.0,4.0,3.0,6.0,1.0,,2.6,3.666667,4.333333,3.0,5.333333,5.0,4.0,4.6
95188,727,2020-03-31 08:51:58,EN,39,Male,"Some College, short continuing education or equivalent",Up to 12 years of school,Full time employed,United States,no,Michigan,Married/cohabiting,1.0,No,Life carries on with minor changes,1.0,0.0,Program A,,No,3.0,4.0,3.0,4.0,3.0,1.0,3.0,4.0,3.0,2.0,3.0,3.0,3.0,5.0,8.0,2.0,4.0,5.0,4.0,5.0,5.0,1.0,1.0,1.0,1.0,1.0,0.0,5.0,4.0,5.0,2.0,4.0,4.0,5.0,2.0,5.0,5.0,3.0,5.0,4.0,5.0,4.0,1.0,5.0,5.0,5.0,5.0,,6.0,5.0,5.0,5.0,5.0,6.0,1.0,2.0,1.0,5.0,5.0,5.0,5.0,5.0,2.0,4.0,2.0,2.0,2.0,5.0,1.0,1.0,6.0,5.0,,6.0,6.0,5.0,6.0,6.0,6.0,6.0,6.0,6.0,6.0,4.0,3.0,3.0,3.0,3.0,3.0,3.0,3.0,3.0,4.0,4.0,3.0,3.0,4.0,3.0,4.0,,2.0,2.0,2.0,2.0,2.0,2.0,,2.6,3.0,3.0,3.333333,4.333333,5.333333,3.5,5.9
95280,972,2020-03-31 08:48:29,EN,57,Female,PhD/Doctorate,Some College or equivalent,Full time employed,United States,no,NH,Married/cohabiting,2.0,No,Isolated,4.0,0.0,,Program C,No,2.0,3.0,3.0,4.0,3.0,3.0,4.0,4.0,3.0,2.0,2.0,2.0,4.0,8.0,10.0,2.0,3.0,8.0,8.0,10.0,2.0,4.0,4.0,4.0,6.0,6.0,2.0,6.0,5.0,6.0,2.0,4.0,4.0,4.0,3.0,2.0,4.0,3.0,4.0,5.0,5.0,3.0,2.0,4.0,4.0,4.0,2.0,5.0,3.0,3.0,3.0,5.0,3.0,5.0,1.0,3.0,99.0,6.0,3.0,4.0,5.0,6.0,2.0,3.0,2.0,5.0,5.0,2.0,1.0,1.0,5.0,5.0,,5.0,4.0,5.0,5.0,6.0,6.0,5.0,6.0,5.0,5.0,2.0,2.0,5.0,2.0,5.0,4.0,2.0,2.0,4.0,3.0,4.0,3.0,5.0,4.0,2.0,2.0,,5.0,5.0,6.0,4.0,6.0,2.0,,2.5,2.666667,4.0,3.333333,4.333333,4.333333,4.666667,5.2
95288,984,2020-03-31 08:48:17,EN,28,Female,"Some College, short continuing education or equivalent",College degree,Full time employed,United States,no,Michigan,Single,0.0,Yes,Isolated,0.0,0.0,,Program C,No,3.0,2.0,4.0,4.0,3.0,2.0,3.0,2.0,3.0,2.0,3.0,2.0,3.0,5.0,7.0,5.0,5.0,5.0,5.0,7.0,4.0,4.0,3.0,5.0,5.0,5.0,3.0,6.0,5.0,5.0,3.0,2.0,2.0,4.0,4.0,5.0,5.0,4.0,3.0,4.0,5.0,4.0,3.0,4.0,5.0,4.0,4.0,5.0,2.0,5.0,99.0,4.0,3.0,4.0,2.0,99.0,99.0,5.0,4.0,4.0,4.0,5.0,5.0,5.0,3.0,4.0,4.0,99.0,2.0,2.0,5.0,3.0,,5.0,5.0,5.0,4.0,5.0,5.0,4.0,4.0,4.0,5.0,4.0,5.0,5.0,5.0,5.0,4.0,4.0,5.0,4.0,4.0,3.0,4.0,4.0,4.0,2.0,4.0,,2.0,6.0,5.0,4.0,4.0,5.0,,2.8,2.666667,3.333333,4.333333,4.333333,4.333333,4.0,4.6
95335,1287,2020-04-01 08:50:14,SME,59,Female,PhD/Doctorate,College degree,Full time employed,United States,yes,Colombia,Married/cohabiting,0.0,Yes,Isolated,1.0,0.0,,,,3.0,2.0,3.0,5.0,5.0,3.0,5.0,4.0,,2.0,1.0,2.0,4.0,9.0,9.0,8.0,9.0,6.0,6.0,6.0,9.0,6.0,6.0,6.0,6.0,6.0,3.0,5.0,6.0,6.0,2.0,6.0,2.0,2.0,4.0,5.0,5.0,6.0,4.0,4.0,6.0,5.0,1.0,5.0,5.0,5.0,1.0,6.0,2.0,5.0,99.0,2.0,6.0,3.0,1.0,1.0,99.0,4.0,5.0,5.0,6.0,6.0,1.0,2.0,1.0,4.0,4.0,4.0,4.0,1.0,4.0,6.0,,6.0,6.0,6.0,6.0,6.0,6.0,6.0,6.0,5.0,6.0,5.0,1.0,6.0,1.0,5.0,5.0,1.0,1.0,2.0,6.0,4.0,5.0,6.0,6.0,5.0,5.0,,5.0,4.0,5.0,4.0,4.0,5.0,No.poder viajar a mi país y estar con mi madre,2.0,2.333333,2.666667,4.666667,5.0,5.333333,5.666667,5.9
95391,506,2020-04-01 08:34:10,EN,30,Male,PhD/Doctorate,College degree,Student,United States,no,Rhode Island,Married/cohabiting,0.0,Yes,Isolated,1.0,0.0,Program A,,No,3.0,3.0,5.0,4.0,3.0,5.0,3.0,3.0,5.0,4.0,1.0,2.0,2.0,8.0,10.0,2.0,5.0,7.0,7.0,8.0,1.0,2.0,4.0,2.0,4.0,4.0,0.0,,,,,,,,,,,,,,,,,,,,,,,,,,,,,,,,,,,,,,,,,,,,,,,,,,,,,,,,,,,,,,,,,,,,,,,,,,,,,,,,,3.6,1.666667,,,,,,
95438,2389,2020-03-31 09:02:11,EN,35,Female,"College degree, bachelor, master",Up to 12 years of school,Full time employed,United States,no,California,Single,0.0,Yes,Isolated,0.0,0.0,,Program C,No,2.0,3.0,3.0,4.0,3.0,2.0,4.0,4.0,2.0,2.0,4.0,3.0,4.0,4.0,6.0,1.0,2.0,5.0,4.0,7.0,1.0,5.0,6.0,5.0,4.0,5.0,2.0,5.0,5.0,5.0,3.0,2.0,4.0,5.0,5.0,4.0,4.0,2.0,6.0,5.0,6.0,5.0,2.0,4.0,5.0,6.0,3.0,5.0,2.0,3.0,99.0,4.0,3.0,5.0,2.0,99.0,99.0,6.0,4.0,5.0,6.0,6.0,3.0,3.0,4.0,4.0,5.0,2.0,4.0,2.0,5.0,4.0,,5.0,4.0,5.0,5.0,5.0,5.0,4.0,6.0,5.0,4.0,4.0,4.0,6.0,5.0,5.0,4.0,2.0,2.0,6.0,4.0,4.0,4.0,6.0,6.0,3.0,5.0,,2.0,6.0,5.0,4.0,3.0,1.0,,2.3,3.666667,4.333333,2.333333,5.333333,4.666667,5.0,4.8
95510,801,2020-03-31 08:30:57,EN,34,Female,"Some College, short continuing education or equivalent",College degree,Full time employed,United States,no,Michigan,Married/cohabiting,0.0,Yes,Life carries on as usual,,,,Program D,No,2.0,2.0,3.0,5.0,4.0,2.0,5.0,5.0,1.0,2.0,1.0,2.0,1.0,4.0,7.0,3.0,7.0,7.0,5.0,6.0,2.0,4.0,5.0,5.0,5.0,5.0,3.0,6.0,5.0,5.0,2.0,2.0,4.0,3.0,3.0,5.0,4.0,4.0,5.0,5.0,5.0,4.0,3.0,4.0,4.0,5.0,4.0,5.0,99.0,2.0,99.0,2.0,2.0,2.0,1.0,4.0,99.0,4.0,3.0,3.0,4.0,4.0,2.0,2.0,2.0,2.0,2.0,4.0,3.0,2.0,4.0,2.0,,5.0,5.0,5.0,5.0,5.0,4.0,5.0,5.0,5.0,5.0,3.0,5.0,5.0,5.0,4.0,2.0,1.0,1.0,4.0,5.0,4.0,4.0,4.0,4.0,1.0,3.0,,2.0,3.0,1.0,3.0,4.0,4.0,,1.7,1.333333,2.666667,3.333333,4.666667,4.0,4.333333,4.9
95519,805,2020-03-31 08:30:23,EN,47,Female,"College degree, bachelor, master",PhD/Doctorate,Not employed,United States,no,Az,Married/cohabiting,3.0,Yes,Life carries on with minor changes,1.0,0.0,Program A,,No,1.0,4.0,3.0,3.0,2.0,2.0,4.0,4.0,3.0,1.0,2.0,2.0,3.0,6.0,8.0,4.0,7.0,7.0,3.0,7.0,3.0,5.0,5.0,5.0,6.0,6.0,2.0,5.0,5.0,5.0,2.0,5.0,4.0,4.0,4.0,5.0,2.0,2.0,6.0,3.0,6.0,5.0,1.0,5.0,6.0,5.0,2.0,5.0,3.0,2.0,5.0,5.0,2.0,3.0,4.0,2.0,99.0,6.0,2.0,6.0,6.0,4.0,2.0,3.0,4.0,2.0,3.0,2.0,2.0,4.0,5.0,4.0,,5.0,5.0,5.0,5.0,5.0,5.0,5.0,5.0,5.0,6.0,4.0,5.0,5.0,4.0,5.0,4.0,5.0,4.0,5.0,4.0,4.0,4.0,5.0,5.0,4.0,4.0,,4.0,4.0,4.0,4.0,4.0,2.0,,2.5,2.333333,3.333333,1.666667,4.666667,5.666667,5.0,5.1
95520,942,2020-03-31 08:32:37,EN,70,Female,"College degree, bachelor, master",Up to 12 years of school,Retired,United States,no,Wa,Divorced/widowed,0.0,Yes,Isolated,0.0,0.0,,Program D,No,2.0,2.0,3.0,4.0,3.0,1.0,4.0,4.0,3.0,1.0,5.0,2.0,5.0,7.0,9.0,7.0,8.0,8.0,8.0,10.0,5.0,5.0,5.0,4.0,4.0,4.0,3.0,5.0,4.0,5.0,2.0,3.0,3.0,4.0,2.0,5.0,5.0,5.0,3.0,3.0,5.0,2.0,2.0,5.0,5.0,5.0,4.0,5.0,3.0,2.0,99.0,99.0,5.0,3.0,1.0,99.0,1.0,4.0,4.0,6.0,6.0,6.0,99.0,3.0,2.0,3.0,2.0,3.0,5.0,2.0,4.0,4.0,,5.0,5.0,5.0,5.0,5.0,5.0,5.0,5.0,5.0,4.0,4.0,2.0,6.0,2.0,2.0,5.0,1.0,1.0,5.0,4.0,4.0,4.0,3.0,5.0,2.0,4.0,,2.0,5.0,3.0,5.0,3.0,5.0,,2.1,4.0,2.666667,4.666667,3.333333,5.0,4.333333,4.9
95624,1000,2020-03-31 08:27:11,SME,43,Female,"College degree, bachelor, master",Up to 12 years of school,Self-employed,United States,yes,Texaa,Married/cohabiting,1.0,Yes,Life carries on with minor changes,1.0,0.0,,Program C,Not sure,3.0,2.0,4.0,4.0,3.0,2.0,4.0,3.0,5.0,2.0,4.0,4.0,3.0,3.0,5.0,1.0,7.0,1.0,1.0,6.0,0.0,6.0,6.0,6.0,6.0,6.0,0.0,5.0,6.0,6.0,4.0,6.0,4.0,6.0,6.0,6.0,2.0,2.0,6.0,6.0,6.0,6.0,4.0,4.0,4.0,6.0,1.0,6.0,2.0,4.0,3.0,6.0,1.0,6.0,99.0,2.0,99.0,6.0,6.0,5.0,5.0,6.0,99.0,2.0,6.0,1.0,4.0,2.0,5.0,6.0,1.0,5.0,,6.0,6.0,4.0,6.0,6.0,6.0,6.0,6.0,6.0,6.0,4.0,6.0,4.0,6.0,4.0,5.0,1.0,1.0,4.0,6.0,6.0,5.0,6.0,5.0,1.0,6.0,,6.0,6.0,6.0,6.0,6.0,4.0,,2.8,3.666667,4.333333,1.666667,6.0,3.666667,6.0,5.8
95630,709,2020-03-31 08:22:01,EN,37,Female,"College degree, bachelor, master",Some College or equivalent,Not employed,United States,no,Florida,Married/cohabiting,2.0,Yes,Life carries on with minor changes,1.0,2.0,Program A,,No,2.0,2.0,3.0,5.0,3.0,2.0,4.0,5.0,2.0,1.0,2.0,2.0,3.0,4.0,9.0,0.0,8.0,8.0,9.0,10.0,0.0,2.0,4.0,4.0,6.0,6.0,0.0,4.0,5.0,6.0,1.0,4.0,2.0,3.0,3.0,5.0,3.0,4.0,2.0,4.0,6.0,4.0,2.0,4.0,5.0,4.0,1.0,6.0,99.0,99.0,2.0,99.0,3.0,3.0,99.0,1.0,2.0,4.0,1.0,3.0,2.0,3.0,99.0,1.0,1.0,2.0,3.0,99.0,3.0,1.0,4.0,1.0,,6.0,6.0,6.0,6.0,6.0,6.0,6.0,6.0,6.0,6.0,2.0,6.0,6.0,2.0,5.0,1.0,1.0,1.0,5.0,1.0,2.0,3.0,5.0,5.0,1.0,2.0,,1.0,6.0,1.0,4.0,1.0,4.0,,1.9,2.333333,2.666667,4.0,4.666667,4.666667,5.333333,6.0
95737,964,2020-04-01 08:20:13,EN,44,Female,PhD/Doctorate,PhD/Doctorate,Full time employed,United States,no,Michigan,Single,0.0,Yes,Life carries on with minor changes,0.0,0.0,Program B,,No,3.0,2.0,3.0,5.0,2.0,2.0,5.0,5.0,3.0,3.0,3.0,4.0,3.0,7.0,9.0,5.0,6.0,6.0,10.0,8.0,5.0,6.0,6.0,6.0,6.0,6.0,4.0,5.0,6.0,6.0,3.0,4.0,6.0,4.0,4.0,5.0,6.0,4.0,3.0,6.0,6.0,6.0,2.0,6.0,6.0,5.0,4.0,6.0,3.0,3.0,,4.0,2.0,5.0,99.0,99.0,99.0,5.0,5.0,6.0,6.0,5.0,6.0,5.0,3.0,4.0,4.0,4.0,4.0,2.0,4.0,4.0,,5.0,5.0,5.0,4.0,4.0,4.0,4.0,5.0,5.0,5.0,5.0,2.0,6.0,2.0,6.0,5.0,1.0,1.0,4.0,6.0,3.0,6.0,6.0,6.0,3.0,5.0,,6.0,6.0,4.0,5.0,6.0,3.0,,2.3,3.333333,3.333333,4.666667,6.0,5.666667,4.666667,4.6
95782,1317,2020-03-31 08:23:49,ZH-T,48,Female,PhD/Doctorate,Up to 12 years of school,Part time employed,United States,no,"San Diego County, California",Married/cohabiting,0.0,Yes,Life carries on with minor changes,1.0,0.0,,Program C,No,2.0,2.0,2.0,4.0,4.0,2.0,2.0,4.0,2.0,2.0,2.0,2.0,2.0,7.0,10.0,8.0,8.0,8.0,6.0,,9.0,4.0,4.0,4.0,4.0,4.0,3.0,6.0,6.0,6.0,1.0,4.0,6.0,4.0,5.0,4.0,5.0,5.0,4.0,5.0,5.0,5.0,4.0,5.0,5.0,5.0,3.0,5.0,5.0,1.0,1.0,1.0,1.0,1.0,1.0,1.0,1.0,1.0,1.0,1.0,1.0,1.0,1.0,1.0,4.0,1.0,1.0,4.0,1.0,4.0,1.0,1.0,,5.0,5.0,5.0,5.0,5.0,5.0,5.0,5.0,4.0,5.0,5.0,5.0,5.0,1.0,5.0,5.0,1.0,1.0,5.0,5.0,4.0,4.0,4.0,5.0,4.0,5.0,,5.0,5.0,6.0,4.0,5.0,3.0,,2.2,2.0,4.0,4.333333,5.0,4.333333,4.666667,4.9
95804,552,2020-03-31 08:09:51,SME,28,Female,"College degree, bachelor, master",College degree,Not employed,United States,yes,California,Married/cohabiting,0.0,Yes,Life carries on with minor changes,1.0,0.0,Program A,,No,1.0,1.0,4.0,5.0,1.0,1.0,1.0,1.0,1.0,2.0,1.0,1.0,2.0,10.0,10.0,6.0,10.0,8.0,10.0,10.0,9.0,5.0,5.0,5.0,5.0,5.0,4.0,6.0,6.0,6.0,,6.0,2.0,5.0,2.0,6.0,6.0,6.0,2.0,5.0,5.0,5.0,2.0,5.0,6.0,6.0,2.0,2.0,6.0,6.0,99.0,5.0,5.0,5.0,5.0,2.0,5.0,6.0,6.0,2.0,4.0,5.0,5.0,2.0,6.0,4.0,6.0,2.0,3.0,2.0,5.0,6.0,,5.0,5.0,5.0,5.0,5.0,5.0,5.0,5.0,5.0,6.0,6.0,5.0,6.0,6.0,5.0,5.0,2.0,2.0,5.0,5.0,5.0,5.0,6.0,6.0,5.0,6.0,,5.0,5.0,5.0,4.0,2.0,2.0,,2.6,1.333333,2.666667,5.666667,5.0,5.333333,4.333333,5.1
95864,924,2020-03-31 08:11:59,EN,30,Female,"Some College, short continuing education or equivalent",College degree,Full time employed,United States,no,Texas,Single,0.0,Yes,Isolated,1.0,0.0,,Program D,No,2.0,4.0,5.0,3.0,2.0,4.0,3.0,3.0,3.0,4.0,4.0,5.0,5.0,3.0,9.0,1.0,,2.0,2.0,9.0,,4.0,6.0,4.0,5.0,6.0,,6.0,6.0,6.0,5.0,1.0,5.0,5.0,4.0,2.0,6.0,6.0,2.0,5.0,6.0,5.0,2.0,4.0,5.0,4.0,5.0,5.0,6.0,2.0,99.0,6.0,5.0,4.0,1.0,6.0,99.0,5.0,6.0,5.0,5.0,5.0,4.0,4.0,99.0,6.0,4.0,6.0,3.0,1.0,5.0,2.0,,5.0,1.0,6.0,6.0,5.0,5.0,5.0,6.0,5.0,5.0,1.0,1.0,6.0,1.0,6.0,5.0,1.0,2.0,2.0,2.0,4.0,4.0,4.0,5.0,1.0,2.0,,1.0,4.0,2.0,4.0,5.0,1.0,,3.5,4.666667,4.666667,5.666667,5.333333,4.666667,3.666667,4.9
95957,1206,2020-04-01 08:10:20,EN,57,Female,"Some College, short continuing education or equivalent",Some College or equivalent,Full time employed,United States,no,California,Married/cohabiting,0.0,Yes,Isolated,1.0,0.0,,Program D,No,3.0,3.0,4.0,4.0,3.0,2.0,4.0,3.0,2.0,2.0,2.0,2.0,4.0,7.0,9.0,3.0,7.0,7.0,2.0,8.0,1.0,5.0,5.0,5.0,6.0,6.0,0.0,6.0,4.0,5.0,1.0,3.0,4.0,2.0,2.0,4.0,5.0,5.0,2.0,5.0,6.0,5.0,1.0,6.0,6.0,5.0,1.0,5.0,2.0,5.0,2.0,1.0,2.0,5.0,2.0,3.0,1.0,6.0,2.0,4.0,4.0,4.0,5.0,3.0,2.0,2.0,4.0,4.0,3.0,2.0,4.0,2.0,Contracting the virus while supporting our emergency operations center- disaster relief employee status,6.0,5.0,6.0,6.0,5.0,6.0,6.0,6.0,5.0,6.0,5.0,5.0,6.0,4.0,4.0,5.0,1.0,1.0,4.0,6.0,5.0,5.0,5.0,4.0,4.0,2.0,,4.0,6.0,5.0,4.0,2.0,4.0,"Elective surgery for significant back pain was postponed, therapy and acupuncture closed- extending daily discomfort for months",2.6,2.666667,2.333333,5.0,5.333333,6.0,5.333333,5.7
96200,1032,2020-03-31 07:50:43,PL,37,Female,PhD/Doctorate,College degree,Full time employed,United States,yes,dolnoslaskie,Married/cohabiting,2.0,Yes,Isolated,1.0,1.0,,Program D,No,2.0,2.0,3.0,4.0,4.0,3.0,3.0,3.0,2.0,2.0,1.0,1.0,1.0,5.0,7.0,1.0,2.0,2.0,6.0,5.0,6.0,4.0,5.0,5.0,5.0,5.0,5.0,6.0,5.0,5.0,5.0,4.0,3.0,3.0,3.0,3.0,5.0,4.0,3.0,4.0,5.0,4.0,4.0,5.0,5.0,5.0,2.0,5.0,4.0,2.0,6.0,5.0,2.0,3.0,1.0,2.0,3.0,6.0,4.0,6.0,6.0,6.0,2.0,3.0,1.0,1.0,5.0,2.0,6.0,1.0,5.0,6.0,,6.0,6.0,6.0,6.0,6.0,6.0,6.0,6.0,6.0,6.0,2.0,5.0,5.0,4.0,4.0,5.0,5.0,5.0,5.0,5.0,2.0,2.0,5.0,5.0,1.0,2.0,,2.0,4.0,6.0,6.0,5.0,2.0,,2.4,1.0,3.333333,4.333333,4.333333,4.333333,5.0,6.0
96213,192,2020-04-01 07:35:45,EN,40,Male,"Some College, short continuing education or equivalent",College degree,Full time employed,United States,no,Michigan,Single,0.0,Yes,Isolated,0.0,0.0,,Program D,No,3.0,2.0,4.0,4.0,2.0,2.0,3.0,3.0,3.0,2.0,4.0,2.0,5.0,,,,,,,,,,,,,,,,,,,,,,,,,,,,,,,,,,,,,,,,,,,,,,,,,,,,,,,,,,,,,,,,,,,,,,,,,,,,,,,,,,,,,,,,,,,,,,,2.8,3.666667,,,,,,
96279,409,2020-03-31 07:35:27,EN,28,Female,"College degree, bachelor, master",College degree,Student,United States,yes,New Hampshire,Married/cohabiting,0.0,Yes,Isolated,2.0,0.0,Program A,,No,3.0,4.0,4.0,2.0,2.0,4.0,2.0,2.0,3.0,4.0,3.0,2.0,4.0,8.0,7.0,1.0,1.0,2.0,2.0,9.0,0.0,5.0,6.0,5.0,6.0,6.0,0.0,4.0,5.0,5.0,4.0,2.0,5.0,5.0,5.0,3.0,5.0,4.0,5.0,4.0,6.0,4.0,4.0,5.0,4.0,5.0,3.0,4.0,2.0,5.0,99.0,3.0,6.0,5.0,99.0,5.0,99.0,5.0,4.0,5.0,5.0,5.0,5.0,5.0,5.0,5.0,5.0,5.0,5.0,3.0,5.0,4.0,,4.0,3.0,3.0,4.0,4.0,4.0,5.0,5.0,4.0,5.0,2.0,2.0,4.0,2.0,5.0,1.0,1.0,1.0,4.0,2.0,2.0,3.0,3.0,4.0,1.0,2.0,,1.0,5.0,5.0,2.0,3.0,3.0,,3.8,3.0,4.666667,3.666667,4.666667,4.0,4.333333,4.1
96339,1017,2020-03-31 07:42:10,EN,43,Male,"College degree, bachelor, master",College degree,Not employed,United States,no,Michigan,Divorced/widowed,0.0,Yes,Isolated,0.0,0.0,Program B,,No,2.0,2.0,4.0,4.0,3.0,2.0,4.0,4.0,2.0,2.0,3.0,2.0,4.0,3.0,5.0,2.0,8.0,9.0,10.0,10.0,1.0,6.0,5.0,5.0,3.0,3.0,2.0,5.0,6.0,6.0,1.0,3.0,5.0,4.0,4.0,5.0,6.0,6.0,1.0,6.0,6.0,5.0,2.0,6.0,6.0,3.0,3.0,5.0,6.0,99.0,99.0,5.0,3.0,5.0,1.0,99.0,99.0,2.0,2.0,6.0,6.0,4.0,99.0,6.0,1.0,4.0,4.0,2.0,1.0,2.0,2.0,1.0,,6.0,6.0,6.0,6.0,6.0,6.0,6.0,6.0,6.0,6.0,4.0,1.0,5.0,1.0,5.0,3.0,2.0,2.0,5.0,5.0,6.0,6.0,2.0,4.0,4.0,5.0,,4.0,5.0,4.0,5.0,3.0,1.0,"I attend AA meetings. Some have been moved onto zoom, but it is difficult not having regular meetings to attend.",2.3,3.0,3.333333,6.0,5.666667,5.666667,4.0,6.0
96345,1717,2020-04-01 07:53:40,SME,33,Male,"College degree, bachelor, master",Up to 12 years of school,Full time employed,United States,yes,Dallas TX,Single,0.0,Yes,Isolated,0.0,0.0,,Program D,No,4.0,2.0,5.0,4.0,4.0,3.0,5.0,5.0,3.0,3.0,5.0,3.0,4.0,7.0,8.0,8.0,7.0,7.0,9.0,9.0,7.0,4.0,6.0,4.0,6.0,5.0,5.0,5.0,6.0,6.0,2.0,4.0,3.0,6.0,6.0,3.0,1.0,1.0,6.0,5.0,6.0,6.0,1.0,4.0,5.0,5.0,4.0,6.0,,,,,,,,,,,,,,,,,,,,,,,,,,,,,,,,,,,,,,,,,,,,,,,,,,,,,,,,,,,,2.6,4.0,5.333333,1.0,5.666667,5.0,4.666667,
96352,325,2020-04-01 07:29:46,EN,32,Female,"College degree, bachelor, master",College degree,Full time employed,United States,no,North Carolina,Married/cohabiting,1.0,Yes,Isolated,2.0,0.0,Program A,,Yes,3.0,5.0,5.0,4.0,2.0,2.0,4.0,2.0,4.0,3.0,1.0,4.0,3.0,5.0,9.0,,4.0,,,7.0,,6.0,6.0,6.0,6.0,6.0,0.0,5.0,6.0,5.0,6.0,3.0,6.0,,,,,,,,,,,,,,,,,,,,,,,,,,,,,,,,,,,,,,,,,,,,,,,,,,,,,,,,,,,,,,,,,,,,,,,,,,,3.4,2.666667,,,,,,
96355,2643,2020-03-31 08:08:07,ZH-T,65,Male,PhD/Doctorate,Up to 12 years of school,Full time employed,United States,yes,Minnesota,Married/cohabiting,1.0,Yes,Isolated,1.0,0.0,,,,1.0,2.0,2.0,5.0,4.0,2.0,5.0,5.0,1.0,1.0,1.0,1.0,1.0,7.0,9.0,3.0,9.0,9.0,8.0,1.0,5.0,5.0,5.0,5.0,5.0,5.0,4.0,6.0,6.0,6.0,1.0,4.0,4.0,4.0,4.0,5.0,4.0,4.0,2.0,5.0,4.0,3.0,1.0,5.0,5.0,6.0,1.0,5.0,1.0,1.0,4.0,1.0,4.0,1.0,1.0,1.0,99.0,5.0,1.0,4.0,4.0,5.0,1.0,1.0,1.0,1.0,1.0,3.0,4.0,1.0,1.0,1.0,,6.0,6.0,5.0,6.0,6.0,6.0,6.0,6.0,5.0,6.0,,1.0,,,,,,,,1.0,,2.0,1.0,,,1.0,,1.0,6.0,1.0,1.0,1.0,4.0,,1.4,1.0,3.333333,4.333333,4.0,5.333333,5.666667,5.8
96358,145,2020-04-01 07:26:12,EN,46,Female,"College degree, bachelor, master",College degree,Full time employed,United States,no,Michigan,Married/cohabiting,1.0,Yes,Isolated,1.0,1.0,Program B,,,,,,,,,,,,,,,,,,,,,,,,,,,,,,,,,,,,,,,,,,,,,,,,,,,,,,,,,,,,,,,,,,,,,,,,,,,,,,,,,,,,,,,,,,,,,,,,,,,,,,,,,,,,,,,,,,,,,
96359,1809,2020-03-31 07:53:54,EN,32,Female,"Some College, short continuing education or equivalent",Up to 12 years of school,Full time employed,United States,no,Minnesota,Divorced/widowed,0.0,Yes,Isolated,0.0,0.0,Program A,,No,3.0,2.0,5.0,3.0,3.0,5.0,3.0,3.0,3.0,5.0,4.0,5.0,5.0,4.0,7.0,3.0,3.0,5.0,5.0,9.0,3.0,5.0,6.0,6.0,6.0,6.0,2.0,5.0,6.0,6.0,4.0,2.0,4.0,6.0,5.0,5.0,5.0,5.0,2.0,6.0,6.0,5.0,2.0,6.0,6.0,6.0,2.0,6.0,3.0,5.0,99.0,6.0,6.0,4.0,3.0,99.0,99.0,6.0,5.0,6.0,6.0,6.0,3.0,3.0,6.0,6.0,5.0,6.0,3.0,3.0,6.0,2.0,,4.0,5.0,4.0,6.0,6.0,6.0,6.0,6.0,6.0,4.0,3.0,6.0,6.0,2.0,2.0,4.0,2.0,1.0,5.0,5.0,4.0,3.0,5.0,3.0,4.0,4.0,,5.0,4.0,4.0,6.0,6.0,2.0,,3.5,4.666667,4.333333,5.0,5.666667,5.666667,5.666667,5.3
96368,902,2020-03-31 07:38:04,EN,55,Male,"College degree, bachelor, master",College degree,Full time employed,United States,no,Michigan,Married/cohabiting,2.0,No,Isolated,4.0,0.0,,Program C,No,2.0,2.0,3.0,3.0,3.0,3.0,5.0,3.0,2.0,2.0,2.0,3.0,3.0,7.0,7.0,4.0,5.0,6.0,5.0,7.0,5.0,5.0,5.0,5.0,5.0,5.0,3.0,5.0,3.0,4.0,2.0,3.0,2.0,4.0,2.0,5.0,3.0,4.0,2.0,5.0,4.0,5.0,2.0,4.0,5.0,3.0,4.0,5.0,2.0,99.0,2.0,99.0,2.0,4.0,99.0,2.0,99.0,5.0,3.0,4.0,4.0,4.0,99.0,3.0,2.0,3.0,4.0,3.0,2.0,2.0,4.0,2.0,,5.0,5.0,5.0,5.0,5.0,4.0,5.0,5.0,4.0,5.0,3.0,5.0,4.0,5.0,3.0,4.0,5.0,2.0,4.0,2.0,3.0,4.0,4.0,4.0,2.0,3.0,,3.0,2.0,2.0,4.0,2.0,2.0,,2.4,2.666667,2.666667,4.0,4.666667,4.666667,3.666667,4.8
96447,658,2020-03-31 07:28:58,EN,55,Female,"College degree, bachelor, master",Up to 12 years of school,Full time employed,United States,no,virginia,Married/cohabiting,1.0,Yes,Isolated,2.0,0.0,,Program D,No,1.0,1.0,3.0,5.0,4.0,2.0,5.0,5.0,1.0,2.0,1.0,1.0,2.0,6.0,8.0,1.0,0.0,2.0,4.0,4.0,0.0,4.0,6.0,5.0,6.0,6.0,3.0,5.0,5.0,5.0,2.0,4.0,4.0,3.0,2.0,5.0,3.0,2.0,4.0,5.0,5.0,4.0,2.0,6.0,5.0,4.0,3.0,5.0,2.0,5.0,2.0,3.0,5.0,2.0,1.0,2.0,99.0,3.0,4.0,5.0,5.0,99.0,5.0,2.0,1.0,2.0,99.0,99.0,5.0,2.0,6.0,6.0,,3.0,5.0,4.0,4.0,4.0,5.0,2.0,5.0,2.0,3.0,2.0,6.0,6.0,6.0,2.0,5.0,1.0,1.0,4.0,2.0,3.0,2.0,5.0,2.0,4.0,1.0,,2.0,2.0,6.0,3.0,3.0,3.0,,1.5,1.333333,2.333333,2.666667,4.666667,5.333333,4.333333,3.7
96464,1256,2020-03-31 07:38:05,ZH-T,57,Female,PhD/Doctorate,College degree,Full time employed,United States,no,,Married/cohabiting,0.0,Yes,Life carries on with minor changes,0.0,0.0,Program B,,No,4.0,1.0,4.0,4.0,2.0,2.0,3.0,3.0,1.0,2.0,1.0,1.0,2.0,5.0,8.0,7.0,7.0,8.0,7.0,2.0,8.0,2.0,2.0,2.0,4.0,4.0,5.0,5.0,5.0,6.0,2.0,3.0,4.0,4.0,4.0,4.0,5.0,6.0,2.0,5.0,2.0,5.0,1.0,5.0,5.0,1.0,6.0,4.0,5.0,5.0,2.0,5.0,2.0,5.0,99.0,5.0,99.0,4.0,4.0,5.0,4.0,5.0,2.0,2.0,2.0,2.0,4.0,5.0,6.0,4.0,4.0,5.0,,5.0,5.0,3.0,5.0,4.0,5.0,4.0,5.0,3.0,5.0,5.0,5.0,5.0,5.0,5.0,5.0,5.0,2.0,5.0,2.0,5.0,5.0,5.0,6.0,2.0,5.0,,5.0,5.0,5.0,3.0,5.0,2.0,,2.6,1.333333,3.666667,5.333333,4.0,5.333333,2.0,4.4
96496,348,2020-04-01 07:21:11,SME,37,Female,"College degree, bachelor, master",Up to 9 years of school,Part time employed,United States,yes,,Married/cohabiting,0.0,No,Isolated,1.0,0.0,Program A,,No,2.0,3.0,3.0,5.0,4.0,1.0,5.0,,2.0,1.0,1.0,2.0,3.0,,,,,,,,,,,,,,,,,,,,,,,,,,,,,,,,,,,,,,,,,,,,,,,,,,,,,,,,,,,,,,,,,,,,,,,,,,,,,,,,,,,,,,,,,,,,,,,1.777778,2.0,,,,,,
96529,619,2020-03-31 07:23:30,EN,35,Female,"College degree, bachelor, master",Up to 12 years of school,Full time employed,United States,no,Michigan,Married/cohabiting,2.0,Yes,Life carries on with minor changes,1.0,2.0,Program A,,No,3.0,3.0,4.0,3.0,3.0,3.0,4.0,3.0,3.0,2.0,1.0,1.0,4.0,6.0,9.0,2.0,8.0,7.0,8.0,8.0,1.0,5.0,6.0,6.0,6.0,6.0,2.0,5.0,5.0,5.0,1.0,2.0,3.0,4.0,5.0,5.0,6.0,6.0,2.0,6.0,5.0,5.0,2.0,5.0,5.0,4.0,1.0,5.0,2.0,5.0,6.0,1.0,2.0,5.0,1.0,2.0,5.0,6.0,5.0,6.0,6.0,6.0,6.0,5.0,4.0,6.0,6.0,2.0,2.0,2.0,6.0,1.0,,6.0,6.0,6.0,6.0,6.0,6.0,6.0,6.0,6.0,6.0,3.0,2.0,6.0,6.0,6.0,5.0,2.0,3.0,5.0,6.0,5.0,6.0,6.0,2.0,1.0,2.0,,5.0,5.0,4.0,5.0,6.0,1.0,,2.9,2.0,3.666667,5.666667,5.333333,5.0,5.0,6.0
96539,1334,2020-03-31 07:34:57,EN,57,Male,"College degree, bachelor, master",Up to 9 years of school,Full time employed,United States,no,california,Married/cohabiting,0.0,Yes,Isolated,1.0,0.0,,,,3.0,3.0,4.0,3.0,2.0,4.0,2.0,2.0,3.0,3.0,2.0,2.0,3.0,5.0,7.0,2.0,4.0,7.0,5.0,6.0,1.0,4.0,5.0,6.0,5.0,5.0,1.0,5.0,5.0,5.0,4.0,2.0,4.0,4.0,4.0,4.0,4.0,3.0,5.0,5.0,6.0,5.0,4.0,4.0,5.0,5.0,4.0,5.0,3.0,6.0,99.0,2.0,4.0,4.0,2.0,2.0,99.0,5.0,4.0,5.0,5.0,5.0,6.0,4.0,2.0,4.0,4.0,3.0,3.0,3.0,5.0,2.0,,5.0,5.0,5.0,5.0,6.0,5.0,5.0,6.0,5.0,5.0,3.0,2.0,3.0,2.0,4.0,4.0,5.0,3.0,3.0,4.0,3.0,4.0,5.0,3.0,2.0,4.0,,1.0,4.0,4.0,2.0,4.0,4.0,,3.5,2.333333,3.666667,3.0,5.333333,4.0,4.333333,5.2
96542,1446,2020-03-31 07:36:34,EN,28,Female,"College degree, bachelor, master",Some College or equivalent,Full time employed,United States,no,Michigan,Single,0.0,Yes,Isolated,3.0,0.0,Program B,,Yes,2.0,4.0,5.0,3.0,2.0,3.0,3.0,2.0,4.0,2.0,1.0,2.0,2.0,4.0,8.0,0.0,3.0,3.0,3.0,6.0,0.0,2.0,5.0,4.0,6.0,6.0,0.0,4.0,3.0,2.0,5.0,1.0,2.0,6.0,6.0,5.0,6.0,5.0,2.0,6.0,5.0,6.0,3.0,5.0,6.0,5.0,2.0,4.0,6.0,6.0,99.0,6.0,5.0,6.0,99.0,5.0,99.0,6.0,4.0,6.0,6.0,6.0,5.0,3.0,2.0,2.0,6.0,2.0,2.0,2.0,5.0,2.0,,5.0,5.0,5.0,5.0,5.0,5.0,5.0,5.0,5.0,5.0,3.0,6.0,6.0,2.0,6.0,6.0,1.0,1.0,5.0,5.0,3.0,3.0,3.0,6.0,1.0,2.0,,5.0,6.0,4.0,3.0,3.0,4.0,"The president of the USA does not relax my fears, ensure me, or prepare me. Nothing he says is trustworthy and is always full of ego and exaggeration. Listening to our president speak actively makes me feel worse about the situation and angry for how underprepared his actions have left our country.",3.4,1.666667,4.666667,5.333333,5.666667,5.0,4.666667,5.0
96551,736,2020-03-31 07:24:16,EN,33,Female,"College degree, bachelor, master",Some College or equivalent,Full time employed,United States,no,Michigan,Married/cohabiting,3.0,Yes,Life carries on with minor changes,1.0,3.0,,Program D,No,3.0,3.0,4.0,5.0,2.0,2.0,5.0,4.0,2.0,1.0,2.0,2.0,4.0,4.0,6.0,5.0,7.0,7.0,3.0,6.0,2.0,5.0,5.0,5.0,5.0,5.0,0.0,5.0,4.0,5.0,2.0,3.0,4.0,3.0,2.0,5.0,4.0,4.0,4.0,5.0,5.0,5.0,2.0,5.0,6.0,4.0,2.0,5.0,3.0,5.0,6.0,3.0,6.0,5.0,1.0,2.0,4.0,6.0,5.0,6.0,4.0,6.0,4.0,4.0,3.0,3.0,6.0,5.0,5.0,2.0,6.0,2.0,,5.0,5.0,5.0,5.0,5.0,5.0,5.0,6.0,5.0,5.0,4.0,6.0,5.0,3.0,2.0,4.0,1.0,1.0,3.0,4.0,3.0,4.0,3.0,4.0,2.0,3.0,,5.0,4.0,2.0,3.0,5.0,5.0,,2.3,2.666667,2.333333,3.666667,5.0,5.333333,4.666667,5.1
96572,215,2020-04-01 07:14:33,EN,59,Female,PhD/Doctorate,Some College or equivalent,Not employed,United States,no,,Married/cohabiting,0.0,Yes,Isolated,1.0,0.0,,Program D,,,,,,,,,,,,,,,,,,,,,,,,,,,,,,,,,,,,,,,,,,,,,,,,,,,,,,,,,,,,,,,,,,,,,,,,,,,,,,,,,,,,,,,,,,,,,,,,,,,,,,,,,,,,,,,,,,,,
96573,664,2020-03-31 07:21:37,FR,30,Male,"College degree, bachelor, master",,Full time employed,United States,yes,Michigan,Married/cohabiting,0.0,Yes,Life carries on with minor changes,,,,Program C,No,2.0,1.0,4.0,4.0,3.0,4.0,3.0,4.0,1.0,1.0,1.0,1.0,1.0,2.0,3.0,4.0,0.0,5.0,7.0,8.0,4.0,6.0,6.0,6.0,6.0,5.0,0.0,2.0,5.0,6.0,1.0,1.0,4.0,4.0,3.0,4.0,1.0,1.0,6.0,6.0,5.0,5.0,2.0,2.0,4.0,6.0,3.0,5.0,1.0,5.0,99.0,6.0,5.0,2.0,99.0,2.0,99.0,4.0,3.0,5.0,5.0,5.0,99.0,2.0,2.0,1.0,1.0,2.0,2.0,5.0,4.0,1.0,,5.0,5.0,4.0,5.0,5.0,5.0,5.0,5.0,5.0,5.0,2.0,4.0,1.0,1.0,1.0,4.0,4.0,4.0,4.0,1.0,2.0,2.0,1.0,4.0,1.0,2.0,,1.0,4.0,4.0,1.0,4.0,1.0,,2.3,1.0,3.333333,1.0,5.333333,3.666667,5.0,4.9
96625,2325,2020-03-31 07:46:15,EN,64,Male,"College degree, bachelor, master",Up to 12 years of school,Full time employed,United States,no,Michigan,Married/cohabiting,0.0,Yes,Life carries on with minor changes,1.0,0.0,,Program D,No,1.0,1.0,2.0,5.0,4.0,1.0,5.0,5.0,1.0,4.0,1.0,3.0,3.0,9.0,10.0,8.0,9.0,8.0,5.0,9.0,8.0,4.0,5.0,5.0,5.0,5.0,7.0,6.0,6.0,6.0,1.0,5.0,4.0,2.0,2.0,2.0,5.0,5.0,2.0,5.0,2.0,4.0,2.0,5.0,6.0,1.0,1.0,1.0,5.0,1.0,1.0,1.0,2.0,1.0,3.0,1.0,1.0,5.0,1.0,1.0,1.0,6.0,1.0,2.0,1.0,2.0,1.0,2.0,2.0,1.0,6.0,6.0,,6.0,6.0,6.0,5.0,6.0,5.0,6.0,6.0,5.0,6.0,5.0,6.0,6.0,1.0,5.0,4.0,1.0,1.0,1.0,6.0,5.0,4.0,5.0,1.0,5.0,5.0,,5.0,5.0,2.0,4.0,2.0,3.0,,1.5,2.333333,3.0,5.0,3.666667,5.333333,2.666667,5.7
96644,425,2020-04-01 07:13:37,EN,43,Female,"Some College, short continuing education or equivalent",Some College or equivalent,Full time employed,United States,no,GA,Married/cohabiting,2.0,Yes,Isolated,1.0,0.0,,Program D,No,2.0,3.0,4.0,4.0,2.0,2.0,3.0,4.0,3.0,2.0,3.0,3.0,3.0,8.0,8.0,2.0,2.0,6.0,7.0,7.0,2.0,5.0,6.0,6.0,6.0,6.0,2.0,6.0,5.0,4.0,3.0,2.0,4.0,3.0,2.0,5.0,6.0,6.0,1.0,5.0,5.0,5.0,4.0,6.0,6.0,5.0,1.0,6.0,,,,,,,,,,,,,,,,,,,,,,,,,,,,,,,,,,,,,,,,,,,,,,,,,,,,,,,,,,,,2.7,3.0,2.333333,6.0,5.0,5.0,5.666667,
96653,2238,2020-03-31 07:43:12,EN,45,Male,"College degree, bachelor, master",College degree,Self-employed,United States,no,TX,Married/cohabiting,,Yes,Isolated,1.0,2.0,Program A,,No,3.0,2.0,3.0,4.0,4.0,2.0,3.0,4.0,4.0,2.0,1.0,1.0,4.0,4.0,7.0,1.0,8.0,8.0,5.0,6.0,5.0,4.0,6.0,4.0,6.0,2.0,3.0,6.0,6.0,5.0,2.0,5.0,6.0,4.0,5.0,4.0,2.0,5.0,2.0,5.0,4.0,3.0,6.0,2.0,2.0,3.0,4.0,6.0,5.0,4.0,2.0,6.0,5.0,4.0,2.0,2.0,6.0,6.0,6.0,6.0,5.0,6.0,3.0,4.0,3.0,4.0,6.0,4.0,3.0,2.0,6.0,2.0,,4.0,6.0,4.0,6.0,5.0,5.0,5.0,6.0,5.0,5.0,4.0,6.0,5.0,3.0,4.0,6.0,6.0,4.0,6.0,6.0,4.0,4.0,2.0,6.0,4.0,5.0,,6.0,6.0,6.0,6.0,2.0,2.0,,2.5,2.0,4.0,4.0,4.0,1.666667,4.0,5.1
96678,100,2020-04-01 07:06:31,EN,42,Female,"College degree, bachelor, master",College degree,Full time employed,United States,no,MA,Married/cohabiting,2.0,Yes,Isolated,1.0,2.0,,,,,,,,,,,,,,,,,,,,,,,,,,,,,,,,,,,,,,,,,,,,,,,,,,,,,,,,,,,,,,,,,,,,,,,,,,,,,,,,,,,,,,,,,,,,,,,,,,,,,,,,,,,,,,,,,,,,,,
96845,1298,2020-03-31 07:18:40,EN,33,Female,"College degree, bachelor, master",College degree,Full time employed,United States,no,Indiana,Divorced/widowed,1.0,Yes,Isolated,0.0,1.0,Program A,,No,4.0,2.0,5.0,3.0,3.0,5.0,3.0,2.0,3.0,3.0,4.0,4.0,4.0,7.0,8.0,5.0,4.0,8.0,6.0,8.0,3.0,5.0,5.0,6.0,4.0,6.0,3.0,5.0,5.0,5.0,5.0,3.0,4.0,4.0,5.0,6.0,5.0,6.0,1.0,6.0,4.0,5.0,2.0,5.0,5.0,3.0,2.0,5.0,3.0,6.0,3.0,2.0,4.0,4.0,2.0,99.0,6.0,5.0,2.0,5.0,6.0,6.0,6.0,5.0,2.0,3.0,3.0,5.0,3.0,4.0,5.0,2.0,,4.0,4.0,4.0,4.0,4.0,4.0,4.0,4.0,4.0,4.0,2.0,1.0,5.0,1.0,5.0,4.0,2.0,2.0,4.0,5.0,5.0,3.0,3.0,5.0,2.0,5.0,,2.0,5.0,3.0,2.0,5.0,3.0,"Being forced into a closer relationship with my abusive ex husband. I share custody of our daughter with him, and he is the only other person I have contact with during exchange of our daughter.  I have to rely on him and interact with him in a way that is uncomfortable.  It feels like we are married again though we live separately.",3.5,4.0,3.333333,5.666667,5.0,5.0,4.333333,4.0
96891,1205,2020-03-31 07:13:53,EN,62,Female,"College degree, bachelor, master",Some College or equivalent,Full time employed,United States,no,Maryland,Single,0.0,Yes,Isolated,0.0,0.0,Program A,,Yes,3.0,3.0,3.0,4.0,5.0,3.0,4.0,4.0,2.0,3.0,2.0,1.0,3.0,6.0,9.0,6.0,6.0,8.0,8.0,8.0,4.0,6.0,6.0,6.0,6.0,6.0,3.0,5.0,6.0,6.0,1.0,3.0,1.0,5.0,6.0,1.0,1.0,1.0,5.0,2.0,5.0,1.0,6.0,4.0,5.0,4.0,5.0,5.0,3.0,2.0,99.0,4.0,5.0,2.0,1.0,99.0,99.0,6.0,2.0,6.0,5.0,6.0,2.0,2.0,2.0,4.0,5.0,1.0,2.0,5.0,6.0,99.0,"Food and medical services for my pet| home maintenance and repair if car, a/c or appliance needs attention",4.0,3.0,4.0,4.0,5.0,5.0,5.0,5.0,5.0,5.0,4.0,2.0,6.0,2.0,5.0,5.0,1.0,1.0,5.0,4.0,4.0,5.0,2.0,4.0,5.0,4.0,,3.0,5.0,2.0,4.0,2.0,4.0,,2.4,2.0,5.666667,1.333333,2.666667,3.333333,3.666667,4.5
96965,982,2020-03-31 07:03:36,EN,36,Female,PhD/Doctorate,College degree,Self-employed,United States,no,VA,Married/cohabiting,1.0,Yes,Isolated,1.0,1.0,Program A,,No,3.0,3.0,4.0,5.0,3.0,1.0,4.0,3.0,3.0,2.0,1.0,1.0,3.0,8.0,9.0,9.0,8.0,9.0,9.0,7.0,10.0,5.0,5.0,4.0,4.0,5.0,5.0,6.0,6.0,5.0,5.0,4.0,4.0,3.0,5.0,4.0,6.0,6.0,2.0,3.0,4.0,1.0,1.0,4.0,6.0,4.0,2.0,5.0,6.0,99.0,5.0,6.0,4.0,3.0,2.0,4.0,4.0,5.0,2.0,6.0,5.0,4.0,6.0,2.0,2.0,2.0,4.0,4.0,1.0,1.0,5.0,1.0,Losing my job temporarily,6.0,5.0,5.0,6.0,6.0,6.0,6.0,6.0,6.0,6.0,5.0,3.0,4.0,2.0,4.0,5.0,1.0,1.0,1.0,2.0,5.0,5.0,4.0,5.0,2.0,5.0,,6.0,2.0,2.0,3.0,5.0,3.0,Exercise - biggest positive influence for me.,2.5,1.666667,3.666667,5.666667,2.666667,5.333333,4.666667,5.8
96966,1025,2020-03-31 07:04:07,EN,42,Female,"College degree, bachelor, master",College degree,Full time employed,United States,no,MI,Single,0.0,Yes,Isolated,0.0,0.0,Program A,,No,3.0,3.0,3.0,4.0,3.0,3.0,5.0,4.0,3.0,3.0,4.0,3.0,5.0,7.0,6.0,3.0,3.0,3.0,8.0,8.0,1.0,6.0,6.0,6.0,6.0,6.0,0.0,6.0,6.0,6.0,6.0,4.0,4.0,1.0,2.0,5.0,6.0,5.0,3.0,5.0,5.0,6.0,2.0,6.0,6.0,5.0,2.0,6.0,6.0,6.0,99.0,6.0,4.0,4.0,99.0,1.0,99.0,6.0,4.0,6.0,3.0,3.0,6.0,6.0,5.0,6.0,5.0,6.0,6.0,2.0,6.0,4.0,,6.0,6.0,6.0,5.0,6.0,6.0,6.0,6.0,6.0,6.0,2.0,2.0,6.0,1.0,6.0,5.0,5.0,5.0,6.0,,6.0,6.0,,6.0,2.0,4.0,,5.0,4.0,2.0,3.0,4.0,2.0,"The not knowing of where this is going, sifting being isolated in my home and waiting to see if Im going to get laid off from my job is the worst",2.6,4.0,1.666667,5.0,5.333333,5.666667,5.333333,5.9
97079,8246,2020-03-31 08:53:52,EN,32,Female,Up to 12 years of school,Some College or equivalent,Full time employed,United States,no,Illinois,Married/cohabiting,0.0,Yes,Life carries on with minor changes,1.0,0.0,Program A,,Yes,2.0,1.0,4.0,4.0,5.0,2.0,4.0,4.0,3.0,2.0,3.0,2.0,5.0,6.0,8.0,2.0,2.0,2.0,2.0,9.0,2.0,4.0,5.0,6.0,6.0,6.0,1.0,5.0,5.0,5.0,4.0,2.0,2.0,5.0,3.0,4.0,5.0,4.0,2.0,6.0,6.0,6.0,3.0,5.0,4.0,6.0,5.0,5.0,1.0,4.0,99.0,1.0,2.0,4.0,99.0,1.0,99.0,4.0,5.0,5.0,5.0,5.0,2.0,1.0,1.0,5.0,4.0,1.0,3.0,2.0,4.0,1.0,,6.0,6.0,6.0,6.0,6.0,6.0,6.0,6.0,5.0,6.0,2.0,1.0,5.0,1.0,5.0,3.0,6.0,6.0,6.0,3.0,2.0,4.0,5.0,5.0,1.0,2.0,,4.0,6.0,5.0,2.0,4.0,3.0,,2.1,3.333333,3.666667,4.666667,6.0,4.333333,4.333333,5.9
97118,729,2020-03-31 06:44:47,EN,38,Female,"College degree, bachelor, master",Up to 12 years of school,Full time employed,United States,no,PA,Married/cohabiting,1.0,Yes,Life carries on with minor changes,1.0,1.0,,,,2.0,3.0,3.0,4.0,3.0,3.0,3.0,4.0,3.0,2.0,1.0,3.0,3.0,8.0,6.0,9.0,9.0,9.0,9.0,9.0,9.0,4.0,5.0,5.0,6.0,6.0,5.0,4.0,5.0,5.0,4.0,3.0,5.0,4.0,4.0,3.0,5.0,4.0,4.0,4.0,5.0,4.0,1.0,5.0,5.0,4.0,2.0,5.0,3.0,4.0,4.0,3.0,4.0,5.0,1.0,1.0,3.0,6.0,3.0,4.0,4.0,4.0,4.0,4.0,4.0,3.0,5.0,4.0,3.0,1.0,4.0,6.0,,6.0,5.0,5.0,6.0,6.0,5.0,6.0,6.0,5.0,6.0,5.0,5.0,6.0,6.0,6.0,5.0,1.0,4.0,6.0,4.0,5.0,5.0,6.0,5.0,1.0,5.0,,1.0,3.0,4.0,4.0,4.0,3.0,,2.6,2.333333,4.0,4.0,4.333333,5.333333,4.666667,5.6
97132,1261,2020-03-31 06:52:39,EN,55,Female,"College degree, bachelor, master",Some College or equivalent,Not employed,United States,no,NC,Married/cohabiting,4.0,Yes,Isolated,3.0,0.0,Program B,,No,4.0,5.0,3.0,4.0,1.0,1.0,2.0,3.0,3.0,2.0,1.0,1.0,3.0,6.0,8.0,5.0,8.0,10.0,8.0,7.0,5.0,6.0,6.0,6.0,6.0,6.0,5.0,6.0,5.0,5.0,4.0,2.0,4.0,3.0,1.0,5.0,5.0,5.0,2.0,5.0,5.0,4.0,2.0,6.0,6.0,5.0,1.0,6.0,2.0,5.0,5.0,6.0,3.0,6.0,6.0,5.0,99.0,6.0,4.0,4.0,3.0,5.0,5.0,3.0,5.0,4.0,2.0,5.0,1.0,1.0,6.0,4.0,,6.0,6.0,6.0,6.0,6.0,6.0,6.0,6.0,6.0,6.0,4.0,5.0,6.0,4.0,5.0,5.0,1.0,1.0,3.0,4.0,5.0,5.0,3.0,2.0,6.0,4.0,,4.0,1.0,1.0,2.0,1.0,1.0,,3.2,1.666667,2.0,5.0,4.666667,5.666667,5.666667,6.0
97141,658,2020-04-01 06:41:45,ZH-T,29,Male,PhD/Doctorate,College degree,Student,United States,yes,<U+4F5B><U+7F57><U+91CC><U+8FBE>,Single,0.0,No,Life carries on with minor changes,2.0,0.0,,Program D,Yes,3.0,3.0,4.0,4.0,3.0,1.0,4.0,4.0,3.0,2.0,1.0,1.0,2.0,5.0,7.0,4.0,8.0,7.0,8.0,0.0,4.0,4.0,4.0,4.0,5.0,5.0,0.0,3.0,5.0,5.0,1.0,4.0,5.0,5.0,5.0,3.0,4.0,2.0,3.0,6.0,6.0,6.0,2.0,4.0,2.0,6.0,1.0,6.0,2.0,3.0,99.0,6.0,5.0,5.0,1.0,6.0,99.0,6.0,5.0,4.0,99.0,4.0,1.0,3.0,3.0,4.0,4.0,6.0,6.0,4.0,6.0,6.0,,,,,,,,,,,,,,,,,,,,,,,,,,,,,,,,,,,,2.5,1.333333,4.666667,3.333333,6.0,3.666667,6.0,
97266,1127,2020-04-01 06:39:56,EN,53,Female,"Some College, short continuing education or equivalent",Some College or equivalent,Full time employed,United States,no,New York,Single,0.0,Yes,Life carries on with minor changes,0.0,0.0,Program A,,No,1.0,2.0,3.0,5.0,3.0,3.0,5.0,4.0,2.0,1.0,1.0,1.0,1.0,3.0,6.0,0.0,9.0,9.0,3.0,9.0,1.0,3.0,6.0,6.0,6.0,6.0,0.0,6.0,5.0,5.0,1.0,2.0,4.0,5.0,2.0,6.0,3.0,3.0,4.0,6.0,6.0,6.0,2.0,4.0,5.0,5.0,1.0,6.0,99.0,2.0,99.0,99.0,2.0,1.0,1.0,99.0,99.0,5.0,6.0,6.0,6.0,6.0,2.0,1.0,1.0,1.0,2.0,4.0,4.0,2.0,4.0,1.0,,5.0,5.0,5.0,5.0,5.0,5.0,5.0,5.0,4.0,5.0,3.0,1.0,6.0,1.0,2.0,1.0,1.0,1.0,1.0,5.0,4.0,3.0,6.0,1.0,1.0,3.0,,1.0,4.0,4.0,2.0,1.0,2.0,"One of my main concerns is as this continues people will have less money and less supplies.   I believe crime will skyrocket.   I am a woman who lives alone.  I am still driving to work 50% of the days, home on call 50% of the days because I am an essential worker.  I am concerned about becoming a target for crime.  I currently am regretting my decision to not own a gun.",1.9,1.0,2.666667,3.0,6.0,4.666667,5.666667,4.9
97272,1164,2020-03-31 06:39:42,LT,50,Female,"College degree, bachelor, master",College degree,Full time employed,United States,yes,Usa,Married/cohabiting,2.0,Not sure,Isolated,3.0,0.0,,Program C,No,1.0,2.0,3.0,4.0,4.0,2.0,4.0,5.0,3.0,2.0,3.0,2.0,4.0,8.0,9.0,8.0,8.0,7.0,7.0,8.0,7.0,5.0,5.0,5.0,5.0,5.0,6.0,4.0,4.0,5.0,2.0,4.0,4.0,4.0,4.0,4.0,4.0,3.0,5.0,3.0,5.0,2.0,4.0,4.0,4.0,5.0,4.0,5.0,4.0,4.0,4.0,3.0,4.0,3.0,2.0,5.0,99.0,5.0,2.0,5.0,2.0,4.0,3.0,3.0,2.0,2.0,4.0,4.0,2.0,2.0,4.0,5.0,,4.0,4.0,5.0,5.0,4.0,5.0,5.0,5.0,4.0,5.0,5.0,5.0,5.0,4.0,4.0,4.0,1.0,1.0,5.0,5.0,4.0,5.0,4.0,4.0,3.0,5.0,,3.0,3.0,4.0,2.0,4.0,3.0,,2.0,3.0,3.666667,3.0,3.333333,3.666667,4.333333,4.6
97277,766,2020-03-31 06:32:52,EN,47,Female,"College degree, bachelor, master",College degree,Full time employed,United States,no,Maryland,Married/cohabiting,3.0,No,Isolated,1.0,2.0,Program A,,No,3.0,3.0,3.0,4.0,3.0,3.0,4.0,3.0,3.0,3.0,3.0,2.0,4.0,6.0,9.0,4.0,7.0,9.0,9.0,9.0,4.0,5.0,5.0,5.0,6.0,6.0,2.0,4.0,6.0,6.0,2.0,2.0,5.0,2.0,4.0,5.0,6.0,5.0,2.0,4.0,5.0,2.0,1.0,5.0,6.0,4.0,2.0,5.0,5.0,6.0,4.0,4.0,5.0,6.0,1.0,5.0,4.0,6.0,2.0,5.0,5.0,5.0,5.0,4.0,2.0,5.0,5.0,2.0,5.0,2.0,6.0,2.0,,6.0,4.0,5.0,5.0,6.0,4.0,5.0,5.0,2.0,6.0,4.0,4.0,5.0,4.0,5.0,6.0,1.0,1.0,6.0,4.0,4.0,5.0,4.0,5.0,1.0,2.0,,2.0,5.0,2.0,2.0,5.0,5.0,,2.8,3.0,2.666667,5.333333,3.666667,5.666667,4.666667,4.8
97281,7043,2020-03-31 08:17:21,PL,60,Female,"Some College, short continuing education or equivalent",Up to 12 years of school,Self-employed,United States,yes,,Married/cohabiting,0.0,Yes,,1.0,0.0,,Program D,Yes,3.0,4.0,3.0,4.0,3.0,3.0,4.0,4.0,2.0,3.0,1.0,1.0,2.0,3.0,7.0,0.0,2.0,1.0,2.0,8.0,2.0,5.0,5.0,5.0,5.0,5.0,1.0,4.0,5.0,5.0,2.0,3.0,4.0,3.0,3.0,3.0,4.0,1.0,4.0,3.0,5.0,3.0,2.0,4.0,4.0,4.0,2.0,4.0,4.0,99.0,99.0,5.0,4.0,2.0,99.0,1.0,99.0,99.0,99.0,5.0,6.0,6.0,99.0,3.0,2.0,2.0,3.0,99.0,4.0,3.0,5.0,99.0,,4.0,4.0,5.0,6.0,6.0,4.0,4.0,6.0,4.0,4.0,4.0,3.0,5.0,2.0,5.0,5.0,1.0,1.0,5.0,4.0,5.0,3.0,4.0,4.0,1.0,4.0,,4.0,5.0,5.0,5.0,5.0,4.0,,2.7,1.333333,3.333333,2.666667,3.666667,4.333333,4.333333,4.7
97365,1685,2020-04-01 06:40:57,SME,42,Female,"Some College, short continuing education or equivalent",Up to 9 years of school,Not employed,United States,yes,Boston,Married/cohabiting,2.0,Yes,Life carries on with minor changes,3.0,2.0,Program A,,No,2.0,2.0,3.0,4.0,3.0,2.0,4.0,4.0,2.0,3.0,2.0,3.0,3.0,4.0,7.0,4.0,8.0,5.0,6.0,6.0,7.0,5.0,5.0,5.0,5.0,5.0,4.0,,,,,,,,,,,,,,,,,,,,,,,,,,,,,,,,,,,,,,,,,,,,,,,,,,,,,,,,,,,,,,,,,,,,,,,,,,,,,,,,,2.3,2.666667,,,,,,
97376,187,2020-04-01 06:14:07,EN,57,Female,"College degree, bachelor, master",College degree,Not employed,United States,no,VA,Married/cohabiting,2.0,Yes,Isolated,2.0,0.0,,,,,,,,,,,,,,,,,,,,,,,,,,,,,,,,,,,,,,,,,,,,,,,,,,,,,,,,,,,,,,,,,,,,,,,,,,,,,,,,,,,,,,,,,,,,,,,,,,,,,,,,,,,,,,,,,,,,,,
97444,1442,2020-03-31 06:27:53,EN,43,Female,"Some College, short continuing education or equivalent",Some College or equivalent,Part time employed,United States,no,Indiana,Married/cohabiting,3.0,No,Isolated,1.0,1.0,,Program D,No,2.0,2.0,3.0,5.0,4.0,2.0,5.0,5.0,2.0,1.0,3.0,2.0,4.0,7.0,9.0,6.0,7.0,7.0,8.0,6.0,7.0,5.0,6.0,5.0,5.0,5.0,4.0,5.0,6.0,6.0,1.0,2.0,6.0,3.0,4.0,4.0,6.0,5.0,2.0,4.0,6.0,5.0,2.0,5.0,6.0,3.0,1.0,5.0,2.0,2.0,3.0,2.0,4.0,4.0,2.0,2.0,2.0,5.0,2.0,5.0,4.0,5.0,2.0,2.0,2.0,2.0,2.0,2.0,6.0,2.0,6.0,1.0,,4.0,5.0,4.0,6.0,6.0,5.0,6.0,6.0,4.0,6.0,4.0,6.0,6.0,2.0,6.0,4.0,2.0,2.0,5.0,4.0,5.0,4.0,4.0,5.0,5.0,4.0,,4.0,5.0,2.0,2.0,5.0,3.0,Thankful my family is together at home. Relieved we are able to stay home with pay from our jobs and we have enough supplies at home that we can limit trips out.,1.7,3.0,3.333333,5.333333,5.0,5.333333,4.666667,5.2
97445,1135,2020-03-31 06:22:47,EN,51,Female,"College degree, bachelor, master",PhD/Doctorate,Full time employed,United States,no,New York,Married/cohabiting,0.0,Yes,Isolated,1.0,0.0,,Program D,No,2.0,3.0,3.0,4.0,3.0,2.0,4.0,2.0,3.0,3.0,3.0,2.0,3.0,6.0,7.0,2.0,2.0,7.0,7.0,9.0,1.0,5.0,6.0,4.0,4.0,3.0,0.0,5.0,3.0,6.0,1.0,2.0,2.0,3.0,4.0,2.0,2.0,1.0,6.0,2.0,6.0,2.0,5.0,3.0,3.0,4.0,6.0,5.0,2.0,2.0,99.0,2.0,4.0,2.0,2.0,5.0,99.0,4.0,4.0,5.0,5.0,5.0,3.0,2.0,3.0,2.0,2.0,2.0,2.0,2.0,4.0,2.0,,4.0,2.0,5.0,1.0,1.0,5.0,1.0,1.0,5.0,4.0,3.0,2.0,4.0,2.0,2.0,6.0,2.0,2.0,4.0,2.0,4.0,2.0,2.0,2.0,4.0,4.0,,1.0,4.0,2.0,2.0,4.0,4.0,,2.7,2.666667,4.0,1.333333,3.333333,2.666667,3.333333,2.9
97449,1019,2020-03-31 06:20:38,EN,43,Male,"College degree, bachelor, master",College degree,Full time employed,United States,no,Maryland,Married/cohabiting,1.0,Yes,Isolated,1.0,1.0,,Program D,No,2.0,2.0,3.0,5.0,4.0,2.0,4.0,4.0,3.0,2.0,1.0,2.0,3.0,8.0,9.0,5.0,9.0,8.0,7.0,9.0,5.0,5.0,5.0,5.0,6.0,6.0,4.0,6.0,5.0,5.0,3.0,5.0,4.0,3.0,2.0,5.0,6.0,6.0,1.0,5.0,5.0,2.0,2.0,5.0,5.0,5.0,1.0,5.0,5.0,4.0,5.0,5.0,4.0,6.0,99.0,2.0,3.0,6.0,4.0,4.0,4.0,5.0,2.0,5.0,4.0,4.0,5.0,4.0,3.0,2.0,6.0,4.0,,6.0,5.0,5.0,6.0,6.0,5.0,6.0,6.0,6.0,5.0,4.0,5.0,5.0,6.0,6.0,4.0,1.0,4.0,4.0,4.0,4.0,5.0,4.0,5.0,1.0,4.0,,5.0,5.0,4.0,3.0,4.0,2.0,,2.1,2.0,2.333333,6.0,4.0,5.0,5.333333,5.6
97470,1053,2020-03-31 06:19:23,SME,40,Female,PhD/Doctorate,PhD/Doctorate,Full time employed,United States,yes,Pennsylvania,Married/cohabiting,0.0,Not sure,Isolated,1.0,0.0,,Program C,No,4.0,3.0,4.0,4.0,2.0,4.0,4.0,2.0,5.0,4.0,1.0,4.0,1.0,6.0,8.0,4.0,8.0,5.0,5.0,8.0,3.0,5.0,6.0,4.0,5.0,5.0,2.0,5.0,5.0,5.0,2.0,3.0,5.0,6.0,5.0,5.0,5.0,3.0,4.0,5.0,6.0,5.0,1.0,3.0,5.0,5.0,2.0,4.0,1.0,4.0,1.0,6.0,3.0,3.0,1.0,2.0,1.0,4.0,3.0,5.0,6.0,5.0,5.0,5.0,4.0,5.0,2.0,2.0,2.0,2.0,5.0,4.0,,5.0,5.0,4.0,5.0,5.0,4.0,6.0,6.0,4.0,6.0,3.0,2.0,5.0,1.0,2.0,4.0,1.0,1.0,5.0,2.0,4.0,5.0,4.0,5.0,1.0,5.0,,4.0,5.0,5.0,4.0,5.0,2.0,,3.6,2.0,4.333333,3.666667,5.333333,4.666667,4.666667,5.0
97492,1613,2020-03-31 06:26:23,EN,53,Female,"College degree, bachelor, master",College degree,Not employed,United States,no,Virginia,Married/cohabiting,0.0,Yes,Isolated,1.0,0.0,,Program C,Yes,3.0,4.0,4.0,2.0,3.0,4.0,3.0,4.0,1.0,4.0,1.0,1.0,1.0,8.0,8.0,8.0,9.0,8.0,10.0,10.0,4.0,6.0,6.0,6.0,6.0,6.0,3.0,6.0,5.0,5.0,1.0,3.0,2.0,6.0,2.0,5.0,6.0,5.0,3.0,4.0,1.0,4.0,1.0,6.0,6.0,5.0,1.0,5.0,1.0,99.0,6.0,5.0,4.0,5.0,1.0,6.0,99.0,6.0,1.0,5.0,5.0,5.0,1.0,1.0,5.0,4.0,1.0,1.0,2.0,1.0,5.0,5.0,,5.0,4.0,5.0,6.0,6.0,5.0,6.0,6.0,6.0,6.0,6.0,6.0,6.0,4.0,4.0,6.0,1.0,1.0,5.0,4.0,1.0,5.0,4.0,6.0,1.0,4.0,,6.0,3.0,4.0,3.0,6.0,1.0,,3.2,1.0,3.333333,5.0,3.0,6.0,5.333333,5.5
97500,2441,2020-03-31 06:39:36,EN,68,Female,"College degree, bachelor, master",Up to 12 years of school,Retired,United States,no,New Hampshire,Divorced/widowed,0.0,Yes,Isolated,0.0,0.0,,Program C,No,3.0,3.0,4.0,2.0,3.0,5.0,2.0,1.0,2.0,4.0,5.0,5.0,5.0,5.0,7.0,7.0,9.0,9.0,8.0,8.0,5.0,6.0,6.0,6.0,6.0,6.0,2.0,5.0,5.0,5.0,5.0,2.0,2.0,5.0,4.0,4.0,6.0,4.0,3.0,4.0,5.0,4.0,3.0,4.0,5.0,2.0,4.0,5.0,3.0,99.0,4.0,99.0,6.0,6.0,5.0,99.0,99.0,6.0,2.0,6.0,6.0,6.0,5.0,5.0,2.0,6.0,6.0,5.0,5.0,3.0,6.0,2.0,Lack of any energy or ambition,5.0,4.0,4.0,2.0,3.0,2.0,5.0,1.0,2.0,3.0,4.0,2.0,5.0,2.0,5.0,6.0,1.0,2.0,5.0,2.0,3.0,5.0,2.0,4.0,5.0,5.0,,6.0,4.0,1.0,4.0,5.0,1.0,Total lack of being effective in my own life and others. Feel useless,3.7,5.0,4.0,4.666667,4.333333,4.333333,3.333333,3.1
97518,943,2020-03-31 06:12:08,EN,66,Female,"College degree, bachelor, master",Up to 12 years of school,Part time employed,United States,no,Florida,Married/cohabiting,0.0,Yes,Isolated,1.0,0.0,Program A,,No,2.0,1.0,2.0,5.0,4.0,1.0,4.0,4.0,1.0,1.0,1.0,2.0,4.0,7.0,9.0,9.0,9.0,9.0,6.0,6.0,9.0,4.0,5.0,5.0,5.0,5.0,5.0,5.0,5.0,4.0,2.0,3.0,4.0,2.0,2.0,5.0,5.0,4.0,2.0,5.0,6.0,5.0,2.0,5.0,5.0,5.0,2.0,5.0,5.0,4.0,99.0,4.0,2.0,4.0,2.0,2.0,99.0,6.0,4.0,4.0,3.0,4.0,4.0,4.0,2.0,2.0,4.0,3.0,5.0,4.0,4.0,2.0,,5.0,5.0,5.0,5.0,5.0,5.0,5.0,5.0,5.0,5.0,4.0,5.0,5.0,3.0,5.0,4.0,1.0,1.0,3.0,4.0,3.0,4.0,4.0,5.0,6.0,4.0,,5.0,5.0,3.0,5.0,5.0,,,1.5,2.333333,2.0,4.666667,5.333333,5.0,5.0,5.0
97537,860,2020-03-31 06:09:23,EN,55,Female,"Some College, short continuing education or equivalent",Some College or equivalent,Not employed,United States,no,Virginia,Married/cohabiting,2.0,Yes,Isolated,2.0,0.0,Program B,,No,3.0,3.0,3.0,4.0,3.0,2.0,4.0,4.0,3.0,1.0,2.0,1.0,2.0,7.0,9.0,4.0,6.0,6.0,4.0,7.0,2.0,4.0,6.0,4.0,6.0,6.0,0.0,6.0,6.0,6.0,2.0,2.0,4.0,5.0,5.0,4.0,2.0,1.0,6.0,4.0,6.0,6.0,2.0,5.0,5.0,4.0,4.0,5.0,2.0,3.0,5.0,5.0,4.0,2.0,1.0,3.0,99.0,6.0,4.0,6.0,6.0,6.0,99.0,1.0,1.0,2.0,2.0,4.0,2.0,2.0,5.0,2.0,,6.0,5.0,5.0,5.0,6.0,5.0,5.0,5.0,5.0,6.0,2.0,3.0,5.0,2.0,4.0,5.0,6.0,2.0,6.0,4.0,,4.0,3.0,6.0,4.0,3.0,,1.0,5.0,6.0,2.0,3.0,3.0,"My spouse is a doctor. Medicine has become a dangerous profession. Also he is retired military, now working in the private sector. I worry he will be called back to military service to deal with the corona virus in a hot spot.",2.4,1.666667,4.333333,1.333333,5.333333,5.0,4.0,5.3
97553,199,2020-04-01 05:57:25,EN,45,Female,"College degree, bachelor, master",Up to 12 years of school,Full time employed,United States,no,Michigan,Married/cohabiting,1.0,Yes,Isolated,2.0,1.0,Program A,,,,,,,,,,,,,,,,,,,,,,,,,,,,,,,,,,,,,,,,,,,,,,,,,,,,,,,,,,,,,,,,,,,,,,,,,,,,,,,,,,,,,,,,,,,,,,,,,,,,,,,,,,,,,,,,,,,,,
97578,950,2020-03-31 06:06:44,ZH-T,55,Female,PhD/Doctorate,Some College or equivalent,Full time employed,United States,no,Ohio,Married/cohabiting,2.0,No,Isolated,4.0,0.0,,Program C,Not sure,3.0,2.0,2.0,,2.0,1.0,3.0,1.0,3.0,1.0,3.0,1.0,4.0,6.0,6.0,2.0,4.0,5.0,1.0,2.0,1.0,2.0,3.0,3.0,4.0,4.0,0.0,4.0,5.0,6.0,1.0,3.0,3.0,1.0,1.0,6.0,6.0,6.0,1.0,6.0,6.0,5.0,1.0,6.0,5.0,4.0,2.0,6.0,4.0,4.0,5.0,4.0,3.0,4.0,3.0,3.0,99.0,5.0,4.0,2.0,2.0,4.0,99.0,4.0,2.0,3.0,4.0,4.0,5.0,2.0,5.0,5.0,,5.0,5.0,5.0,5.0,5.0,5.0,5.0,5.0,5.0,5.0,1.0,5.0,4.0,3.0,3.0,1.0,1.0,1.0,4.0,4.0,,1.0,5.0,5.0,4.0,2.0,,1.0,2.0,2.0,1.0,1.0,1.0,,2.666667,2.666667,1.0,6.0,5.666667,5.666667,5.0,5.0
97588,743,2020-03-31 06:02:20,EN,29,Female,"Some College, short continuing education or equivalent",Up to 12 years of school,Self-employed,United States,no,Virginia,Married/cohabiting,0.0,Yes,Isolated,2.0,0.0,Program A,,No,3.0,4.0,5.0,3.0,2.0,2.0,3.0,2.0,4.0,3.0,3.0,3.0,4.0,4.0,6.0,1.0,5.0,5.0,4.0,5.0,0.0,6.0,6.0,6.0,6.0,6.0,0.0,3.0,6.0,6.0,4.0,1.0,4.0,5.0,5.0,5.0,1.0,1.0,5.0,6.0,5.0,6.0,2.0,4.0,4.0,4.0,5.0,5.0,6.0,5.0,99.0,6.0,6.0,5.0,3.0,5.0,99.0,5.0,4.0,6.0,6.0,5.0,5.0,4.0,1.0,4.0,4.0,5.0,6.0,6.0,6.0,2.0,,6.0,5.0,5.0,6.0,6.0,5.0,6.0,6.0,5.0,6.0,1.0,5.0,5.0,5.0,5.0,3.0,1.0,1.0,4.0,4.0,5.0,4.0,5.0,5.0,5.0,1.0,,2.0,5.0,6.0,3.0,4.0,2.0,President Trump greatly undermines my sense of well-being,3.5,3.333333,4.0,1.333333,5.666667,4.333333,3.666667,5.6
97601,1706,2020-03-31 06:17:07,EN,39,Female,"Some College, short continuing education or equivalent",Up to 12 years of school,Not employed,United States,yes,New York,Married/cohabiting,3.0,No,Isolated,1.0,2.0,Program B,,No,2.0,4.0,3.0,4.0,3.0,2.0,4.0,3.0,4.0,3.0,2.0,2.0,2.0,4.0,5.0,3.0,6.0,5.0,6.0,5.0,5.0,5.0,5.0,5.0,5.0,5.0,5.0,6.0,5.0,5.0,3.0,3.0,4.0,4.0,3.0,4.0,5.0,4.0,3.0,3.0,3.0,5.0,3.0,4.0,4.0,5.0,4.0,4.0,5.0,3.0,4.0,5.0,4.0,4.0,2.0,5.0,4.0,5.0,3.0,5.0,5.0,4.0,3.0,5.0,3.0,3.0,4.0,4.0,3.0,2.0,5.0,2.0,,4.0,4.0,4.0,4.0,4.0,5.0,5.0,5.0,2.0,5.0,3.0,2.0,5.0,3.0,5.0,5.0,2.0,5.0,5.0,4.0,3.0,4.0,2.0,5.0,2.0,3.0,,5.0,5.0,4.0,5.0,5.0,3.0,,2.8,2.0,3.333333,4.333333,3.666667,4.0,4.0,4.2
97607,1319,2020-03-31 06:09:12,EN,50,Female,"College degree, bachelor, master",Some College or equivalent,Self-employed,United States,no,Virginia,Married/cohabiting,1.0,Not sure,Isolated,1.0,0.0,Program B,,No,3.0,4.0,5.0,3.0,2.0,2.0,3.0,3.0,3.0,3.0,4.0,2.0,4.0,3.0,5.0,2.0,8.0,8.0,5.0,8.0,1.0,5.0,5.0,6.0,6.0,6.0,2.0,5.0,5.0,5.0,5.0,2.0,2.0,4.0,4.0,4.0,3.0,2.0,4.0,6.0,5.0,6.0,2.0,4.0,5.0,6.0,4.0,5.0,1.0,1.0,2.0,1.0,4.0,2.0,1.0,6.0,3.0,6.0,4.0,5.0,6.0,5.0,2.0,1.0,4.0,3.0,6.0,2.0,4.0,3.0,6.0,1.0,"My biggest stressors are the things out of my control. My husband thinks he is taking this seriously, but then goes to the market for a single item and stops at a neighbors house on the way home. My pet needs to see a vet and Im worried about making the right decision for everyone.",4.0,4.0,2.0,3.0,3.0,3.0,4.0,4.0,4.0,4.0,1.0,4.0,2.0,1.0,1.0,4.0,3.0,1.0,3.0,3.0,3.0,4.0,3.0,4.0,1.0,1.0,,1.0,5.0,4.0,3.0,4.0,2.0,"I think our current political administration was going to be four ridiculous years to just get through. Now faced with a serious crisis, with a reality tv star and con-man ruining the show, America couldnt be less prepared. The only thing that could make this worse is if a significant portion of the country thought he was doing a good job.",3.3,3.333333,3.666667,2.666667,5.666667,4.666667,4.666667,3.5
97619,863,2020-03-31 06:00:19,EN,54,Female,"College degree, bachelor, master",Some College or equivalent,Full time employed,United States,no,Pennsylvania,Married/cohabiting,2.0,Yes,Life carries on with minor changes,2.0,0.0,Program A,,No,1.0,1.0,2.0,5.0,3.0,1.0,4.0,4.0,1.0,1.0,1.0,1.0,3.0,5.0,9.0,5.0,10.0,10.0,8.0,5.0,8.0,3.0,5.0,5.0,6.0,5.0,5.0,6.0,6.0,5.0,2.0,2.0,2.0,4.0,2.0,5.0,4.0,5.0,2.0,4.0,4.0,4.0,2.0,4.0,5.0,3.0,2.0,6.0,99.0,6.0,6.0,99.0,4.0,3.0,2.0,6.0,99.0,4.0,6.0,4.0,4.0,5.0,6.0,4.0,3.0,4.0,5.0,2.0,3.0,2.0,4.0,99.0,,6.0,5.0,5.0,5.0,6.0,5.0,6.0,6.0,5.0,6.0,4.0,6.0,5.0,5.0,5.0,4.0,,,4.0,4.0,3.0,4.0,4.0,4.0,4.0,4.0,,4.0,4.0,4.0,5.0,5.0,5.0,,1.5,1.666667,2.666667,4.666667,4.0,4.666667,4.666667,5.5
97684,374,2020-04-01 05:45:32,EN,44,Male,"College degree, bachelor, master",College degree,Full time employed,United States,no,Maryland,Married/cohabiting,2.0,Yes,Isolated,1.0,2.0,,Program C,No,3.0,2.0,4.0,4.0,3.0,2.0,5.0,3.0,4.0,2.0,1.0,2.0,3.0,8.0,9.0,4.0,8.0,5.0,8.0,5.0,0.0,4.0,5.0,5.0,6.0,6.0,0.0,6.0,5.0,5.0,2.0,4.0,2.0,5.0,5.0,2.0,5.0,6.0,2.0,3.0,2.0,1.0,2.0,5.0,5.0,3.0,4.0,5.0,,,,,,,,,,,,,,,,,,,,,,,,,,,,,,,,,,,,,,,,,,,,,,,,,,,,,,,,,,,,2.6,2.0,5.0,5.333333,2.0,5.0,3.666667,
97807,739,2020-03-31 05:41:02,EN,24,Male,"College degree, bachelor, master",College degree,Full time employed,United States,no,NJ,Single,0.0,Not sure,Life carries on with minor changes,0.0,0.0,,Program D,No,3.0,1.0,2.0,4.0,4.0,1.0,2.0,4.0,3.0,2.0,3.0,1.0,2.0,6.0,9.0,4.0,8.0,8.0,8.0,,5.0,4.0,3.0,2.0,5.0,6.0,4.0,5.0,6.0,6.0,2.0,4.0,4.0,2.0,4.0,4.0,4.0,4.0,6.0,4.0,6.0,4.0,3.0,4.0,5.0,6.0,4.0,6.0,1.0,1.0,99.0,1.0,1.0,2.0,99.0,99.0,99.0,2.0,1.0,3.0,1.0,1.0,1.0,1.0,2.0,2.0,1.0,1.0,1.0,1.0,1.0,1.0,,,,,,,,,6.0,,,5.0,5.0,4.0,5.0,4.0,2.0,6.0,6.0,6.0,6.0,6.0,4.0,6.0,5.0,4.0,4.0,,4.0,4.0,4.0,3.0,3.0,4.0,,2.2,2.0,3.0,3.0,4.666667,4.333333,5.0,6.0
97825,1987,2020-04-01 06:00:39,SME,40,Female,Up to 12 years of school,,Self-employed,United States,yes,,Divorced/widowed,3.0,No,Isolated,2.0,0.0,Program B,,Not sure,5.0,3.0,5.0,4.0,4.0,3.0,4.0,1.0,1.0,2.0,3.0,2.0,5.0,8.0,8.0,7.0,7.0,7.0,,8.0,5.0,6.0,6.0,,6.0,6.0,,5.0,6.0,5.0,5.0,4.0,3.0,3.0,4.0,4.0,5.0,4.0,5.0,5.0,4.0,5.0,2.0,6.0,6.0,5.0,2.0,6.0,6.0,3.0,4.0,5.0,5.0,5.0,4.0,2.0,2.0,5.0,4.0,5.0,5.0,5.0,5.0,4.0,4.0,4.0,5.0,2.0,5.0,4.0,5.0,3.0,,,,,,,,,,,,,,,,,,,,,,,,,,,,,,,,,,,,3.0,3.333333,3.333333,3.666667,4.666667,5.666667,5.333333,
97900,793,2020-03-31 05:34:37,EN,53,Female,"College degree, bachelor, master",Up to 12 years of school,Full time employed,United States,no,NC,Divorced/widowed,2.0,Yes,Isolated,2.0,0.0,Program A,,No,2.0,4.0,5.0,4.0,2.0,2.0,4.0,4.0,2.0,3.0,2.0,2.0,2.0,7.0,9.0,3.0,6.0,8.0,6.0,9.0,3.0,5.0,6.0,5.0,6.0,6.0,0.0,6.0,6.0,6.0,2.0,4.0,2.0,6.0,6.0,5.0,5.0,5.0,1.0,6.0,6.0,6.0,3.0,5.0,6.0,5.0,1.0,6.0,4.0,2.0,3.0,2.0,4.0,2.0,2.0,3.0,1.0,6.0,3.0,6.0,6.0,6.0,2.0,4.0,1.0,2.0,3.0,4.0,4.0,2.0,3.0,2.0,,6.0,6.0,6.0,6.0,6.0,6.0,6.0,6.0,6.0,6.0,2.0,1.0,6.0,1.0,5.0,4.0,1.0,1.0,5.0,6.0,4.0,2.0,6.0,6.0,3.0,2.0,,1.0,5.0,6.0,5.0,4.0,2.0,,2.8,2.0,4.666667,5.333333,6.0,5.0,5.666667,6.0
97924,1036,2020-03-31 05:36:56,EN,40,Female,"College degree, bachelor, master",College degree,Full time employed,United States,no,Michigan,Married/cohabiting,4.0,Yes,Isolated,2.0,4.0,Program A,,No,3.0,4.0,4.0,3.0,2.0,3.0,3.0,3.0,4.0,4.0,3.0,3.0,4.0,4.0,8.0,2.0,5.0,5.0,2.0,6.0,1.0,3.0,5.0,3.0,6.0,6.0,1.0,5.0,5.0,6.0,4.0,3.0,1.0,3.0,2.0,5.0,4.0,3.0,5.0,3.0,5.0,4.0,3.0,5.0,6.0,5.0,3.0,5.0,5.0,6.0,5.0,2.0,5.0,5.0,2.0,2.0,5.0,3.0,3.0,3.0,3.0,2.0,1.0,5.0,2.0,5.0,3.0,2.0,2.0,2.0,6.0,2.0,,5.0,5.0,4.0,4.0,5.0,5.0,5.0,5.0,4.0,5.0,2.0,4.0,5.0,5.0,3.0,6.0,1.0,1.0,2.0,6.0,4.0,3.0,6.0,3.0,2.0,4.0,,2.0,4.0,2.0,4.0,3.0,4.0,,3.5,3.333333,2.333333,3.0,4.0,5.0,4.666667,4.7
98005,1339,2020-03-31 05:34:51,EN,43,Female,"College degree, bachelor, master",College degree,Not employed,United States,no,North Carolina,Married/cohabiting,1.0,Yes,Isolated,2.0,1.0,,Program D,No,2.0,3.0,2.0,3.0,3.0,4.0,2.0,3.0,3.0,3.0,1.0,1.0,1.0,4.0,8.0,2.0,6.0,5.0,3.0,9.0,3.0,4.0,6.0,4.0,5.0,5.0,3.0,4.0,5.0,5.0,5.0,3.0,3.0,3.0,1.0,5.0,1.0,2.0,5.0,4.0,4.0,2.0,2.0,4.0,5.0,4.0,4.0,5.0,5.0,99.0,6.0,6.0,2.0,2.0,2.0,5.0,4.0,6.0,3.0,5.0,6.0,5.0,99.0,2.0,4.0,1.0,1.0,2.0,6.0,3.0,4.0,99.0,,6.0,5.0,5.0,6.0,6.0,6.0,6.0,6.0,6.0,6.0,4.0,1.0,5.0,1.0,2.0,5.0,1.0,2.0,4.0,4.0,5.0,4.0,1.0,5.0,4.0,4.0,,5.0,6.0,5.0,2.0,3.0,3.0,"Most stress is related to husband being considered an essential worker as scallop fisherman. He does not want to work for the next month, but cant afford to be fired. Is older and has underlying conditions. Constant stress- feeling his choice is a chance of death or losing his job.",3.0,1.0,2.0,1.666667,3.333333,4.666667,4.0,5.8
98059,3374,2020-03-31 06:05:17,EN,42,Female,PhD/Doctorate,Up to 12 years of school,Full time employed,United States,no,Ohio,Married/cohabiting,2.0,Yes,Isolated,1.0,2.0,Program A,,No,2.0,2.0,3.0,4.0,4.0,1.0,4.0,4.0,3.0,2.0,2.0,2.0,3.0,6.0,9.0,6.0,6.0,7.0,7.0,7.0,5.0,6.0,6.0,6.0,6.0,5.0,2.0,6.0,5.0,6.0,5.0,2.0,4.0,4.0,3.0,4.0,6.0,6.0,2.0,5.0,3.0,2.0,3.0,5.0,5.0,5.0,2.0,5.0,6.0,6.0,5.0,99.0,2.0,3.0,1.0,2.0,6.0,5.0,2.0,6.0,5.0,4.0,,4.0,,2.0,4.0,3.0,1.0,1.0,6.0,1.0,,6.0,6.0,6.0,6.0,6.0,6.0,6.0,6.0,6.0,6.0,4.0,4.0,4.0,3.0,5.0,4.0,1.0,1.0,4.0,4.0,4.0,4.0,4.0,4.0,2.0,4.0,,4.0,4.0,1.0,1.0,4.0,1.0,,2.1,2.333333,3.333333,5.666667,3.333333,4.666667,5.0,6.0
98072,723,2020-03-31 05:20:09,EN,35,Female,"College degree, bachelor, master",Up to 12 years of school,Not employed,United States,no,Geoegia,Married/cohabiting,2.0,Yes,Isolated,1.0,2.0,,Program C,No,3.0,4.0,4.0,3.0,2.0,4.0,3.0,2.0,2.0,4.0,2.0,2.0,3.0,3.0,5.0,2.0,2.0,5.0,2.0,5.0,2.0,6.0,6.0,6.0,6.0,6.0,0.0,5.0,6.0,6.0,2.0,1.0,4.0,5.0,5.0,5.0,6.0,5.0,4.0,5.0,6.0,6.0,1.0,4.0,6.0,6.0,2.0,6.0,5.0,5.0,6.0,6.0,5.0,4.0,1.0,5.0,6.0,5.0,5.0,5.0,5.0,6.0,99.0,3.0,5.0,5.0,5.0,5.0,3.0,2.0,5.0,4.0,,5.0,6.0,1.0,5.0,4.0,4.0,4.0,6.0,4.0,6.0,3.0,5.0,5.0,3.0,5.0,4.0,1.0,2.0,6.0,4.0,5.0,5.0,3.0,5.0,1.0,4.0,,5.0,4.0,5.0,5.0,5.0,4.0,,3.5,2.333333,4.0,4.666667,5.666667,5.333333,5.666667,4.5
98082,1530,2020-03-31 05:33:11,EN,66,Female,"College degree, bachelor, master",Up to 12 years of school,Full time employed,United States,no,Pennsylvania,Married/cohabiting,0.0,Yes,Life carries on with minor changes,1.0,0.0,,Program D,No,2.0,4.0,3.0,4.0,2.0,1.0,3.0,4.0,3.0,2.0,2.0,3.0,4.0,3.0,7.0,3.0,7.0,5.0,3.0,3.0,3.0,6.0,,6.0,6.0,6.0,3.0,5.0,6.0,6.0,1.0,1.0,4.0,5.0,5.0,4.0,6.0,5.0,3.0,3.0,6.0,4.0,4.0,5.0,5.0,5.0,1.0,6.0,1.0,1.0,99.0,1.0,5.0,5.0,1.0,5.0,99.0,6.0,2.0,6.0,6.0,6.0,6.0,6.0,2.0,5.0,4.0,2.0,5.0,2.0,6.0,1.0,,6.0,6.0,6.0,6.0,6.0,6.0,6.0,6.0,6.0,6.0,3.0,6.0,6.0,5.0,5.0,4.0,6.0,6.0,6.0,2.0,5.0,6.0,6.0,6.0,4.0,4.0,,5.0,5.0,2.0,6.0,5.0,1.0,My mom and grown daughter's live far away and I can be with them to protect them.  I can't travel to be with them for fear of bringing the virus from where I am to where they are.  If they get sick and die from it I will never forgive myself for not being with them.,2.6,3.0,4.333333,5.0,4.333333,4.333333,5.666667,6.0
98224,797,2020-03-31 05:10:45,EN,42,Female,PhD/Doctorate,College degree,Full time employed,United States,no,Maryland,Married/cohabiting,1.0,Yes,Life carries on with minor changes,2.0,1.0,,Program D,No,2.0,3.0,4.0,4.0,3.0,2.0,3.0,2.0,3.0,3.0,1.0,2.0,3.0,6.0,8.0,3.0,8.0,5.0,8.0,10.0,0.0,4.0,4.0,4.0,6.0,5.0,1.0,5.0,6.0,6.0,4.0,4.0,2.0,5.0,4.0,6.0,3.0,2.0,5.0,5.0,5.0,4.0,4.0,5.0,5.0,5.0,4.0,5.0,5.0,5.0,5.0,2.0,4.0,5.0,1.0,2.0,5.0,6.0,5.0,4.0,4.0,4.0,4.0,4.0,5.0,5.0,4.0,3.0,3.0,2.0,6.0,2.0,Financial impact to my local community,6.0,6.0,5.0,6.0,6.0,6.0,6.0,6.0,6.0,6.0,2.0,4.0,5.0,3.0,5.0,4.0,1.0,1.0,5.0,4.0,3.0,3.0,4.0,4.0,1.0,4.0,,1.0,5.0,5.0,6.0,6.0,5.0,,2.9,2.0,3.333333,2.333333,4.666667,4.333333,4.333333,5.9
98278,1543,2020-04-01 05:19:32,EN,48,Female,"College degree, bachelor, master",College degree,Full time employed,United States,no,MI,Married/cohabiting,5.0,Yes,Life carries on with minor changes,,,,Program D,No,3.0,1.0,3.0,5.0,2.0,2.0,4.0,4.0,3.0,3.0,2.0,2.0,3.0,9.0,10.0,8.0,8.0,8.0,9.0,8.0,8.0,5.0,5.0,5.0,5.0,5.0,3.0,4.0,5.0,5.0,2.0,4.0,6.0,3.0,2.0,5.0,4.0,2.0,2.0,4.0,5.0,2.0,2.0,6.0,5.0,5.0,2.0,5.0,4.0,4.0,4.0,2.0,3.0,3.0,2.0,5.0,5.0,6.0,3.0,5.0,5.0,4.0,4.0,4.0,2.0,2.0,5.0,2.0,2.0,2.0,5.0,2.0,,,,,,,,,,,,,,,,,,,,,,,,,,,,,,,,,,,,2.4,2.333333,2.333333,3.666667,3.666667,5.333333,5.0,
98415,601,2020-03-31 04:51:43,EN,30,Male,"College degree, bachelor, master",College degree,Full time employed,United States,no,Md,Single,0.0,Yes,Isolated,2.0,0.0,,Program D,Yes,3.0,4.0,4.0,3.0,3.0,3.0,3.0,3.0,4.0,3.0,3.0,3.0,4.0,6.0,8.0,2.0,2.0,2.0,2.0,3.0,2.0,5.0,6.0,5.0,6.0,6.0,0.0,6.0,3.0,3.0,4.0,4.0,1.0,4.0,1.0,5.0,2.0,3.0,2.0,5.0,4.0,4.0,4.0,4.0,4.0,4.0,3.0,5.0,6.0,4.0,99.0,5.0,2.0,5.0,99.0,3.0,99.0,6.0,4.0,5.0,4.0,6.0,3.0,5.0,3.0,5.0,5.0,5.0,2.0,3.0,6.0,4.0,,6.0,6.0,6.0,5.0,5.0,4.0,6.0,6.0,4.0,6.0,1.0,4.0,5.0,1.0,4.0,3.0,4.0,5.0,4.0,4.0,4.0,4.0,2.0,2.0,1.0,3.0,,1.0,4.0,2.0,4.0,2.0,1.0,,3.3,3.333333,2.333333,3.333333,4.333333,3.666667,4.333333,5.4
98464,854,2020-03-31 04:52:21,EN,43,Female,"College degree, bachelor, master",Up to 12 years of school,Full time employed,United States,no,Florida,Married/cohabiting,0.0,Yes,Life carries on with minor changes,1.0,0.0,,,,2.0,2.0,3.0,5.0,4.0,3.0,4.0,4.0,3.0,2.0,3.0,2.0,3.0,7.0,8.0,1.0,6.0,5.0,7.0,7.0,1.0,5.0,5.0,5.0,5.0,5.0,3.0,5.0,4.0,5.0,2.0,2.0,2.0,5.0,3.0,5.0,3.0,2.0,4.0,4.0,5.0,2.0,1.0,5.0,6.0,3.0,3.0,5.0,2.0,5.0,99.0,99.0,4.0,5.0,99.0,5.0,99.0,6.0,4.0,5.0,4.0,5.0,5.0,4.0,2.0,3.0,4.0,4.0,4.0,3.0,5.0,99.0,,5.0,5.0,4.0,5.0,3.0,5.0,5.0,5.0,4.0,5.0,3.0,3.0,5.0,3.0,5.0,5.0,2.0,2.0,5.0,5.0,4.0,3.0,4.0,5.0,5.0,4.0,,3.0,3.0,4.0,4.0,4.0,3.0,,2.2,2.666667,3.333333,2.666667,3.666667,5.666667,4.0,4.6
98598,1662,2020-03-31 04:55:15,SME,43,Male,PhD/Doctorate,Up to 12 years of school,Full time employed,United States,yes,Texas,Married/cohabiting,2.0,Yes,Isolated,1.0,2.0,,Program D,No,4.0,3.0,5.0,3.0,2.0,3.0,3.0,3.0,4.0,3.0,1.0,2.0,4.0,8.0,9.0,5.0,7.0,7.0,3.0,9.0,3.0,4.0,4.0,4.0,5.0,5.0,3.0,5.0,5.0,5.0,2.0,3.0,4.0,4.0,5.0,3.0,3.0,3.0,4.0,4.0,6.0,3.0,2.0,4.0,5.0,5.0,4.0,4.0,2.0,5.0,5.0,6.0,1.0,3.0,1.0,4.0,4.0,6.0,5.0,4.0,4.0,5.0,2.0,2.0,1.0,2.0,6.0,3.0,2.0,2.0,5.0,5.0,,6.0,5.0,4.0,6.0,6.0,5.0,6.0,6.0,4.0,6.0,3.0,4.0,6.0,1.0,6.0,1.0,1.0,1.0,5.0,2.0,2.0,4.0,5.0,4.0,1.0,3.0,,4.0,3.0,4.0,4.0,6.0,5.0,,3.5,2.333333,4.333333,3.0,4.333333,4.666667,4.0,5.4
98889,687,2020-03-31 04:19:23,SME,29,Male,PhD/Doctorate,College degree,Student,United States,yes,Georgia,Single,0.0,Yes,Isolated,0.0,0.0,Program A,,No,4.0,3.0,4.0,3.0,2.0,3.0,3.0,4.0,4.0,5.0,4.0,4.0,4.0,8.0,8.0,,,,,3.0,,5.0,6.0,5.0,2.0,2.0,,5.0,6.0,6.0,5.0,5.0,1.0,5.0,3.0,5.0,5.0,5.0,3.0,4.0,6.0,6.0,2.0,5.0,6.0,5.0,4.0,5.0,3.0,5.0,99.0,6.0,5.0,5.0,1.0,5.0,99.0,4.0,4.0,5.0,5.0,5.0,5.0,5.0,4.0,5.0,5.0,5.0,4.0,4.0,5.0,5.0,,5.0,4.0,2.0,4.0,4.0,5.0,5.0,2.0,4.0,5.0,3.0,2.0,5.0,2.0,5.0,5.0,2.0,2.0,1.0,5.0,5.0,5.0,5.0,2.0,1.0,5.0,,2.0,2.0,2.0,2.0,2.0,5.0,,3.5,4.0,3.333333,4.666667,5.333333,5.333333,4.333333,4.0
98903,125,2020-04-01 04:09:16,EN,20,Male,"Some College, short continuing education or equivalent",Some College or equivalent,Part time employed,United States,no,TeXas,Single,0.0,Not sure,Life carries on as usual,2.0,0.0,Program A,,No,1.0,3.0,3.0,2.0,2.0,3.0,1.0,1.0,4.0,1.0,3.0,3.0,3.0,10.0,4.0,4.0,8.0,5.0,5.0,5.0,6.0,2.0,2.0,2.0,4.0,5.0,5.0,,,,,,,,,,,,,,,,,,,,,,,,,,,,,,,,,,,,,,,,,,,,,,,,,,,,,,,,,,,,,,,,,,,,,,,,,,,,,,,,,3.3,3.0,,,,,,
99122,17415,2020-03-31 08:32:11,SME,39,Female,"College degree, bachelor, master",Up to 12 years of school,Part time employed,United States,yes,Mo,Married/cohabiting,0.0,No,Isolated,1.0,0.0,Program B,,No,2.0,2.0,3.0,3.0,3.0,3.0,3.0,2.0,2.0,1.0,5.0,2.0,2.0,9.0,10.0,8.0,10.0,9.0,9.0,9.0,9.0,4.0,4.0,4.0,4.0,6.0,3.0,6.0,6.0,5.0,1.0,2.0,2.0,3.0,5.0,3.0,4.0,4.0,2.0,4.0,4.0,4.0,1.0,4.0,5.0,4.0,1.0,4.0,4.0,99.0,99.0,5.0,99.0,4.0,99.0,5.0,99.0,6.0,5.0,3.0,4.0,6.0,4.0,5.0,4.0,99.0,5.0,4.0,4.0,5.0,4.0,1.0,,5.0,6.0,5.0,6.0,,6.0,6.0,5.0,5.0,6.0,4.0,5.0,6.0,4.0,4.0,4.0,4.0,5.0,5.0,5.0,4.0,4.0,5.0,4.0,4.0,4.0,,4.0,4.0,6.0,3.0,4.0,3.0,,2.6,3.0,4.0,4.333333,4.0,5.0,4.666667,5.555556
99478,27569,2020-03-31 10:38:45,ZH-T,23,Male,"College degree, bachelor, master",PhD/Doctorate,Not employed,United States,no,"Seattle, WA",Single,0.0,Yes,Isolated,1.0,0.0,Program B,,Not sure,5.0,5.0,5.0,3.0,2.0,5.0,2.0,2.0,5.0,5.0,5.0,4.0,5.0,7.0,7.0,4.0,5.0,3.0,3.0,0.0,2.0,4.0,5.0,4.0,5.0,6.0,0.0,4.0,6.0,6.0,5.0,1.0,4.0,4.0,5.0,3.0,6.0,5.0,3.0,4.0,6.0,4.0,5.0,4.0,4.0,5.0,4.0,4.0,6.0,5.0,99.0,6.0,4.0,6.0,6.0,6.0,99.0,5.0,6.0,5.0,5.0,6.0,2.0,5.0,4.0,6.0,5.0,5.0,6.0,4.0,5.0,6.0,,5.0,5.0,5.0,5.0,6.0,5.0,5.0,5.0,5.0,5.0,3.0,2.0,3.0,3.0,4.0,2.0,4.0,4.0,4.0,4.0,3.0,4.0,3.0,4.0,3.0,4.0,,3.0,4.0,3.0,3.0,5.0,3.0,"<U+56E0><U+653F><U+5E9C><U+547D><U+4EE4><U+4E0D><U+80FD><U+51FA><U+9580>,<U+548C><U+5BB6><U+5EAD><U+4E2D><U+6709><U+60C5><U+7DD2><U+554F><U+984C><U+7684><U+9577><U+8005><U+9700><U+9577><U+6642><U+9593><U+540C><U+4F4F> Stay-at-home order from the government forced me at home with emotionally-troubled elder in the family",4.5,4.666667,4.333333,5.0,4.666667,3.333333,4.0,5.1
99506,599,2020-03-31 03:05:22,EN,42,Female,"College degree, bachelor, master",Up to 12 years of school,Not employed,United States,no,Michigan,Married/cohabiting,3.0,Yes,Isolated,1.0,3.0,,Program C,No,3.0,3.0,4.0,3.0,2.0,4.0,3.0,3.0,4.0,3.0,3.0,3.0,5.0,3.0,9.0,0.0,8.0,9.0,6.0,8.0,0.0,4.0,6.0,5.0,5.0,5.0,1.0,5.0,5.0,5.0,4.0,3.0,3.0,5.0,4.0,3.0,5.0,5.0,3.0,4.0,5.0,5.0,2.0,4.0,4.0,4.0,2.0,5.0,3.0,99.0,6.0,4.0,6.0,6.0,99.0,5.0,5.0,5.0,4.0,5.0,5.0,5.0,99.0,5.0,99.0,5.0,5.0,4.0,4.0,3.0,5.0,99.0,,5.0,5.0,5.0,5.0,5.0,3.0,5.0,5.0,5.0,5.0,2.0,3.0,4.0,3.0,4.0,4.0,4.0,3.0,5.0,4.0,4.0,4.0,3.0,4.0,2.0,2.0,,4.0,4.0,4.0,4.0,5.0,4.0,,3.4,3.666667,4.333333,4.666667,4.666667,4.333333,4.666667,4.8
99647,1153,2020-03-31 02:55:22,EN,68,Female,"College degree, bachelor, master",Some College or equivalent,Retired,United States,no,Hawaii,Divorced/widowed,0.0,No,Isolated,3.0,1.0,,Program D,No,3.0,5.0,2.0,5.0,5.0,1.0,5.0,5.0,2.0,2.0,3.0,1.0,2.0,7.0,9.0,3.0,7.0,7.0,7.0,7.0,3.0,5.0,5.0,5.0,6.0,6.0,3.0,5.0,5.0,5.0,2.0,5.0,2.0,4.0,2.0,6.0,5.0,3.0,4.0,5.0,6.0,4.0,2.0,5.0,6.0,5.0,2.0,5.0,4.0,99.0,2.0,2.0,2.0,1.0,1.0,3.0,2.0,4.0,4.0,2.0,2.0,4.0,2.0,1.0,2.0,2.0,2.0,2.0,2.0,1.0,3.0,1.0,,6.0,5.0,6.0,6.0,6.0,6.0,6.0,6.0,5.0,6.0,3.0,6.0,5.0,3.0,4.0,5.0,1.0,1.0,5.0,5.0,4.0,4.0,5.0,3.0,5.0,4.0,,5.0,4.0,4.0,4.0,5.0,5.0,"The administration of our country is chaotic, divisive, untrustworthy, and lacks leadership. Very unhealthy.",1.9,2.0,2.333333,3.666667,5.0,5.333333,5.0,5.8
99699,1254,2020-03-31 02:50:38,EN,48,Female,"College degree, bachelor, master",Some College or equivalent,Full time employed,United States,no,ME,Married/cohabiting,1.0,Yes,Isolated,1.0,1.0,Program A,,No,2.0,2.0,3.0,5.0,4.0,2.0,4.0,3.0,3.0,2.0,2.0,2.0,3.0,3.0,8.0,5.0,8.0,8.0,9.0,1.0,5.0,5.0,5.0,5.0,5.0,5.0,4.0,5.0,5.0,5.0,2.0,3.0,5.0,4.0,3.0,5.0,3.0,2.0,5.0,4.0,5.0,2.0,3.0,4.0,4.0,5.0,4.0,5.0,2.0,2.0,4.0,2.0,4.0,4.0,4.0,2.0,1.0,4.0,2.0,5.0,5.0,6.0,1.0,1.0,1.0,4.0,4.0,2.0,4.0,1.0,4.0,4.0,China lying about their numbers obscuring important data and the WHO being complicit as well as insufficient testing in the US,5.0,5.0,5.0,5.0,5.0,5.0,5.0,6.0,5.0,5.0,4.0,2.0,5.0,2.0,5.0,5.0,2.0,2.0,5.0,5.0,4.0,5.0,5.0,4.0,2.0,4.0,,5.0,5.0,5.0,3.0,5.0,4.0,Access to multiple platforms to video call has been very helpful,2.2,2.333333,3.0,2.333333,3.666667,4.0,4.333333,5.1
99839,444,2020-04-01 02:20:11,EN,43,Female,"College degree, bachelor, master",College degree,Full time employed,United States,yes,New Jersey,Married/cohabiting,1.0,Yes,Life carries on with minor changes,1.0,1.0,,Program D,Not sure,2.0,2.0,3.0,4.0,4.0,2.0,4.0,4.0,2.0,1.0,2.0,2.0,2.0,,,,,,,,,,,,,,,,,,,,,,,,,,,,,,,,,,,,,,,,,,,,,,,,,,,,,,,,,,,,,,,,,,,,,,,,,,,,,,,,,,,,,,,,,,,,,,,2.0,2.0,,,,,,
99849,887,2020-03-31 02:26:22,EN,40,Male,"Some College, short continuing education or equivalent",College degree,Full time employed,United States,no,Tx,Married/cohabiting,0.0,Yes,Life carries on with minor changes,,,Program B,,No,2.0,3.0,3.0,4.0,3.0,3.0,4.0,4.0,2.0,3.0,3.0,3.0,3.0,6.0,7.0,4.0,3.0,5.0,6.0,8.0,5.0,3.0,3.0,3.0,3.0,3.0,2.0,5.0,4.0,4.0,3.0,4.0,4.0,4.0,4.0,3.0,4.0,3.0,4.0,4.0,4.0,4.0,4.0,4.0,4.0,4.0,4.0,3.0,3.0,3.0,99.0,2.0,3.0,4.0,3.0,3.0,3.0,4.0,3.0,3.0,3.0,3.0,3.0,3.0,3.0,5.0,3.0,3.0,3.0,4.0,3.0,3.0,,4.0,3.0,4.0,3.0,4.0,3.0,4.0,3.0,3.0,4.0,2.0,4.0,2.0,4.0,3.0,4.0,2.0,4.0,4.0,4.0,4.0,2.0,4.0,4.0,1.0,2.0,Grindr,4.0,4.0,4.0,3.0,3.0,4.0,,2.5,3.0,4.0,3.333333,4.0,3.666667,3.333333,3.5
99938,650,2020-04-01 02:12:42,EN,56,Female,"College degree, bachelor, master",PhD/Doctorate,Full time employed,United States,no,Arizona,Married/cohabiting,2.0,No,Life carries on with minor changes,1.0,0.0,,Program D,No,2.0,2.0,2.0,5.0,4.0,3.0,5.0,4.0,4.0,2.0,2.0,2.0,3.0,7.0,9.0,3.0,7.0,8.0,2.0,3.0,2.0,4.0,5.0,5.0,6.0,6.0,3.0,6.0,6.0,5.0,2.0,3.0,2.0,,,,,,,,,,,,,,,,,,,,,,,,,,,,,,,,,,,,,,,,,,,,,,,,,,,,,,,,,,,,,,,,,,,,,,,,,,,2.1,2.333333,,,,,,
100084,957,2020-04-01 02:01:27,EN,39,Female,"Some College, short continuing education or equivalent",Up to 12 years of school,Full time employed,United States,yes,Washington,Married/cohabiting,1.0,Yes,Isolated,2.0,1.0,Program A,,Yes,2.0,2.0,2.0,5.0,2.0,2.0,5.0,4.0,2.0,2.0,2.0,3.0,3.0,4.0,7.0,0.0,,,,0.0,,3.0,3.0,3.0,3.0,3.0,0.0,3.0,6.0,6.0,4.0,3.0,2.0,4.0,1.0,6.0,6.0,6.0,1.0,1.0,6.0,1.0,1.0,6.0,6.0,1.0,1.0,6.0,6.0,5.0,99.0,6.0,4.0,5.0,5.0,99.0,6.0,99.0,5.0,3.0,4.0,6.0,6.0,1.0,4.0,1.0,6.0,4.0,99.0,3.0,5.0,5.0,,6.0,6.0,6.0,6.0,6.0,6.0,6.0,6.0,6.0,6.0,6.0,4.0,6.0,4.0,6.0,6.0,3.0,3.0,4.0,6.0,6.0,6.0,6.0,6.0,6.0,6.0,,6.0,6.0,,5.0,1.0,,,2.0,2.666667,2.0,6.0,2.666667,6.0,4.333333,6.0
100101,2561,2020-03-31 02:26:52,EN,55,Male,"College degree, bachelor, master",Some College or equivalent,Part time employed,United States,no,CA,Single,0.0,No,Isolated,0.0,0.0,Program A,,No,3.0,4.0,5.0,3.0,2.0,3.0,3.0,3.0,4.0,3.0,5.0,5.0,5.0,6.0,8.0,5.0,7.0,8.0,3.0,5.0,5.0,3.0,3.0,3.0,3.0,4.0,9.0,5.0,4.0,5.0,2.0,4.0,1.0,1.0,2.0,5.0,2.0,3.0,4.0,4.0,6.0,4.0,4.0,2.0,5.0,6.0,2.0,4.0,5.0,2.0,99.0,5.0,6.0,6.0,2.0,99.0,99.0,6.0,6.0,2.0,3.0,4.0,99.0,6.0,2.0,6.0,6.0,99.0,1.0,1.0,6.0,3.0,,3.0,4.0,1.0,4.0,4.0,3.0,4.0,5.0,3.0,1.0,2.0,5.0,2.0,2.0,2.0,2.0,1.0,1.0,1.0,4.0,2.0,2.0,5.0,2.0,1.0,2.0,,3.0,6.0,6.0,3.0,6.0,4.0,Living alone. All of my social interaction and most of my joy comes from activities outside of my home with others. They have all been shit down. For 8 weeks! Will there be anything left. Millions and millions of people are losing their jobs. The over action to this will cause poverty that will kill more over decades than we are saving with our actions. Action is being taken in a collective neurosis and fear of death. The world is attempting to commit collective suicide. What a disastrous thing. Everyone will suffer.,3.5,5.0,1.666667,2.666667,4.666667,3.333333,5.0,3.2
100117,444,2020-04-01 01:50:06,EN,40,Male,"College degree, bachelor, master",College degree,,United States,no,California,Single,0.0,Yes,Life carries on with minor changes,0.0,0.0,Program B,,No,3.0,1.0,3.0,,4.0,1.0,1.0,,1.0,3.0,,1.0,,2.0,4.0,1.0,1.0,2.0,5.0,5.0,0.0,5.0,5.0,,5.0,5.0,0.0,5.0,,,5.0,5.0,5.0,4.0,1.0,,3.0,5.0,5.0,5.0,,,5.0,,,5.0,3.0,,,,99.0,2.0,5.0,,99.0,,,5.0,6.0,6.0,5.0,,,,,2.0,4.0,5.0,6.0,1.0,2.0,1.0,,,,,,,,,,,,,,,,,,,,,,,,,,,,,,,,,,,,2.375,1.0,2.5,3.333333,5.0,2.0,4.5,
100397,1064,2020-03-31 01:32:18,EN,55,Female,"Some College, short continuing education or equivalent",Up to 12 years of school,Self-employed,United States,no,California,Divorced/widowed,1.0,Yes,Isolated,1.0,0.0,Program A,,No,3.0,3.0,4.0,4.0,3.0,3.0,2.0,3.0,3.0,3.0,4.0,3.0,4.0,8.0,9.0,6.0,6.0,6.0,4.0,9.0,6.0,6.0,6.0,1.0,6.0,6.0,3.0,5.0,5.0,5.0,4.0,4.0,3.0,3.0,2.0,5.0,6.0,5.0,1.0,6.0,5.0,5.0,1.0,5.0,6.0,4.0,4.0,5.0,6.0,3.0,99.0,3.0,4.0,6.0,5.0,4.0,99.0,6.0,4.0,5.0,6.0,5.0,99.0,4.0,3.0,5.0,3.0,5.0,3.0,4.0,5.0,99.0,Medications,5.0,6.0,5.0,5.0,5.0,4.0,6.0,5.0,5.0,6.0,4.0,2.0,5.0,2.0,5.0,5.0,5.0,6.0,4.0,5.0,5.0,3.0,4.0,5.0,6.0,4.0,,5.0,5.0,4.0,5.0,5.0,5.0,Lack of income. Lack of hugs. Lack of personal face to face visits.,3.1,3.666667,2.333333,5.666667,5.333333,5.666667,4.0,5.2
100428,3263,2020-03-31 02:06:00,EN,57,Female,"College degree, bachelor, master",College degree,Full time employed,United States,no,Hawaiu,Married/cohabiting,1.0,Yes,Life carries on with minor changes,1.0,0.0,,Program D,No,2.0,3.0,3.0,4.0,4.0,3.0,4.0,4.0,2.0,2.0,1.0,3.0,2.0,7.0,8.0,4.0,5.0,6.0,7.0,8.0,7.0,3.0,4.0,4.0,4.0,5.0,6.0,5.0,5.0,5.0,4.0,4.0,2.0,5.0,2.0,5.0,4.0,3.0,3.0,4.0,5.0,5.0,2.0,6.0,5.0,2.0,4.0,5.0,99.0,2.0,99.0,2.0,2.0,4.0,2.0,4.0,99.0,4.0,4.0,2.0,3.0,2.0,99.0,99.0,1.0,3.0,6.0,3.0,4.0,2.0,5.0,3.0,,6.0,5.0,5.0,5.0,5.0,5.0,6.0,6.0,4.0,5.0,4.0,4.0,5.0,2.0,3.0,4.0,1.0,1.0,4.0,5.0,3.0,3.0,4.0,4.0,2.0,3.0,,4.0,4.0,2.0,4.0,4.0,3.0,,2.3,2.0,3.0,3.666667,4.666667,5.333333,3.333333,5.2
100492,919,2020-03-31 01:21:34,ZH-T,61,Female,PhD/Doctorate,Up to 12 years of school,Retired,United States,no,California,Married/cohabiting,0.0,No,Life carries on with minor changes,,,Program A,,No,3.0,3.0,3.0,4.0,2.0,4.0,2.0,3.0,3.0,1.0,2.0,1.0,1.0,8.0,10.0,7.0,8.0,8.0,7.0,4.0,6.0,6.0,5.0,4.0,6.0,6.0,0.0,5.0,6.0,6.0,3.0,4.0,6.0,,3.0,5.0,6.0,6.0,,6.0,4.0,,1.0,6.0,6.0,4.0,1.0,6.0,5.0,99.0,99.0,99.0,5.0,6.0,99.0,5.0,99.0,6.0,5.0,3.0,4.0,6.0,99.0,6.0,99.0,4.0,5.0,6.0,6.0,4.0,6.0,6.0,,5.0,6.0,2.0,6.0,5.0,6.0,6.0,6.0,5.0,6.0,5.0,1.0,6.0,5.0,6.0,6.0,1.0,1.0,3.0,6.0,4.0,5.0,4.0,4.0,1.0,4.0,,5.0,5.0,1.0,5.0,6.0,6.0,,3.0,1.333333,2.5,6.0,5.0,6.0,5.333333,5.3
100514,238,2020-04-01 01:08:50,EN,38,Male,"College degree, bachelor, master",College degree,Not employed,United States,no,,Single,0.0,Yes,Isolated,0.0,0.0,,Program D,No,,,,,,,,,,,,,,,,,,,,,,,,,,,,,,,,,,,,,,,,,,,,,,,,,,,,,,,,,,,,,,,,,,,,,,,,,,,,,,,,,,,,,,,,,,,,,,,,,,,,,,,,,,,,,,,,,,,
100622,884,2020-03-31 01:07:59,SME,31,Female,PhD/Doctorate,College degree,Self-employed,United States,yes,Minnesota,Married/cohabiting,0.0,Yes,Life carries on with minor changes,1.0,0.0,,Program D,No,4.0,5.0,5.0,3.0,3.0,5.0,4.0,3.0,1.0,4.0,4.0,2.0,2.0,5.0,9.0,2.0,7.0,5.0,6.0,10.0,1.0,2.0,6.0,5.0,6.0,6.0,2.0,6.0,5.0,5.0,5.0,2.0,5.0,6.0,4.0,5.0,4.0,5.0,6.0,5.0,6.0,6.0,2.0,4.0,5.0,6.0,2.0,4.0,6.0,6.0,99.0,6.0,4.0,2.0,1.0,4.0,99.0,6.0,5.0,5.0,5.0,6.0,2.0,2.0,4.0,5.0,2.0,6.0,3.0,2.0,4.0,6.0,,6.0,3.0,5.0,6.0,3.0,5.0,5.0,6.0,5.0,6.0,2.0,3.0,6.0,1.0,6.0,3.0,1.0,1.0,4.0,4.0,5.0,2.0,6.0,6.0,1.0,3.0,,5.0,6.0,6.0,2.0,5.0,1.0,Miedo a la incertidumbre del futuro colectivo. Miedo a recaer en depresion y desarrollar problemas de ansiedad. Siento duelo por anticipado.,3.5,2.666667,4.0,3.333333,5.666667,4.666667,5.0,5.0
100678,1066,2020-04-01 01:05:25,EN,56,Female,"College degree, bachelor, master",Some College or equivalent,Self-employed,United States,no,California,Divorced/widowed,0.0,Yes,Isolated,1.0,0.0,,Program C,No,3.0,3.0,4.0,3.0,3.0,4.0,4.0,2.0,4.0,4.0,5.0,3.0,3.0,6.0,8.0,2.0,3.0,4.0,1.0,8.0,1.0,6.0,6.0,6.0,6.0,6.0,1.0,5.0,5.0,6.0,1.0,3.0,2.0,5.0,4.0,5.0,2.0,1.0,6.0,5.0,6.0,5.0,2.0,5.0,6.0,5.0,2.0,5.0,6.0,3.0,6.0,6.0,4.0,1.0,1.0,6.0,99.0,6.0,3.0,6.0,6.0,6.0,3.0,2.0,2.0,3.0,3.0,5.0,5.0,2.0,4.0,6.0,People around me not taking seriously the precautions we've been asked to carry out.,5.0,4.0,4.0,5.0,4.0,5.0,5.0,5.0,5.0,5.0,2.0,1.0,4.0,1.0,2.0,5.0,1.0,1.0,1.0,4.0,3.0,5.0,5.0,3.0,1.0,4.0,Napping.,2.0,4.0,4.0,3.0,3.0,4.0,--,3.4,3.666667,3.666667,1.333333,5.333333,5.333333,5.0,4.7
100695,2133,2020-04-01 01:21:39,EN,39,Female,Up to 12 years of school,Some College or equivalent,Full time employed,United States,no,California,Other or would rather not say,0.0,Yes,Life carries on with minor changes,1.0,0.0,Program A,,,3.0,3.0,4.0,2.0,1.0,4.0,2.0,3.0,3.0,4.0,1.0,2.0,3.0,8.0,6.0,5.0,6.0,5.0,4.0,0.0,5.0,5.0,5.0,5.0,5.0,5.0,2.0,4.0,5.0,4.0,3.0,3.0,5.0,5.0,5.0,4.0,3.0,4.0,3.0,3.0,4.0,3.0,3.0,4.0,5.0,5.0,4.0,4.0,99.0,4.0,99.0,2.0,4.0,4.0,5.0,4.0,99.0,4.0,4.0,4.0,1.0,4.0,4.0,4.0,3.0,4.0,4.0,4.0,4.0,3.0,5.0,5.0,,,,,,,,,,,,,,,,,,,,,,,,,,,,,,,,,,,,3.7,2.0,4.333333,3.666667,3.333333,4.333333,4.0,
100699,389,2020-04-01 00:52:22,ZH-T,53,Female,PhD/Doctorate,College degree,Retired,United States,yes,<U+7F8E><U+570B><U+52A0><U+5DDE>,Married/cohabiting,0.0,Yes,Life carries on with minor changes,0.0,0.0,,Program D,No,2.0,4.0,4.0,3.0,2.0,3.0,2.0,1.0,1.0,3.0,2.0,1.0,3.0,,,,,,,,,,,,,,,,,,,,,,,,,,,,,,,,,,,,,,,,,,,,,,,,,,,,,,,,,,,,,,,,,,,,,,,,,,,,,,,,,,,,,,,,,,,,,,,3.3,2.0,,,,,,
100704,1178,2020-03-31 01:04:25,EN,26,Female,"College degree, bachelor, master",College degree,Full time employed,United States,no,California,Single,0.0,Yes,Isolated,3.0,0.0,,Program C,No,3.0,2.0,3.0,5.0,4.0,1.0,3.0,4.0,3.0,1.0,3.0,3.0,2.0,4.0,9.0,1.0,5.0,7.0,4.0,6.0,2.0,1.0,6.0,4.0,6.0,6.0,2.0,5.0,3.0,3.0,1.0,4.0,4.0,6.0,3.0,3.0,5.0,4.0,4.0,5.0,6.0,6.0,4.0,3.0,4.0,5.0,2.0,5.0,2.0,2.0,2.0,2.0,2.0,2.0,2.0,4.0,2.0,5.0,2.0,5.0,6.0,3.0,2.0,2.0,4.0,3.0,4.0,3.0,2.0,2.0,3.0,2.0,The risk of socioeconomically vulnerable populations being adversely affected by either the virus or the loss of income or access to resources esp in developing nations and in structurally disempowered populations,5.0,5.0,4.0,4.0,5.0,5.0,5.0,5.0,5.0,5.0,4.0,5.0,5.0,2.0,5.0,5.0,2.0,2.0,5.0,5.0,4.0,5.0,4.0,6.0,6.0,5.0,Mindfulness and health/wellbeing activities,5.0,2.0,2.0,5.0,5.0,4.0,,2.1,2.666667,4.333333,4.0,5.666667,3.333333,5.0,4.8
100778,706,2020-03-31 00:50:19,EN,47,Male,"College degree, bachelor, master",Up to 9 years of school,Full time employed,United States,no,Fl,Married/cohabiting,2.0,Yes,Isolated,2.0,0.0,Program B,,No,3.0,2.0,4.0,3.0,3.0,2.0,3.0,4.0,2.0,3.0,3.0,3.0,3.0,5.0,7.0,5.0,6.0,5.0,5.0,0.0,5.0,6.0,6.0,5.0,5.0,2.0,4.0,5.0,6.0,6.0,3.0,2.0,6.0,6.0,2.0,6.0,4.0,5.0,6.0,4.0,6.0,6.0,6.0,4.0,5.0,6.0,3.0,6.0,1.0,1.0,6.0,1.0,1.0,5.0,1.0,2.0,1.0,99.0,4.0,6.0,6.0,4.0,4.0,4.0,3.0,1.0,2.0,2.0,1.0,1.0,1.0,1.0,,5.0,5.0,4.0,4.0,5.0,5.0,5.0,5.0,5.0,5.0,3.0,2.0,2.0,3.0,5.0,4.0,3.0,3.0,5.0,3.0,3.0,3.0,3.0,1.0,1.0,3.0,,5.0,6.0,5.0,4.0,5.0,3.0,,2.7,3.0,3.0,3.333333,5.333333,3.333333,5.333333,4.8
100840,809,2020-03-31 00:46:47,EN,32,Female,"College degree, bachelor, master",Up to 12 years of school,Full time employed,United States,no,California,Married/cohabiting,0.0,Yes,Isolated,1.0,0.0,,Program C,No,2.0,4.0,3.0,3.0,3.0,2.0,3.0,3.0,3.0,2.0,2.0,3.0,5.0,3.0,6.0,6.0,9.0,7.0,9.0,8.0,5.0,4.0,4.0,5.0,5.0,4.0,3.0,5.0,5.0,5.0,2.0,2.0,1.0,4.0,5.0,5.0,4.0,3.0,4.0,4.0,2.0,2.0,4.0,4.0,4.0,6.0,2.0,6.0,5.0,2.0,99.0,4.0,5.0,4.0,1.0,3.0,99.0,5.0,2.0,3.0,3.0,5.0,2.0,4.0,3.0,5.0,4.0,3.0,3.0,2.0,4.0,1.0,,6.0,5.0,5.0,6.0,5.0,6.0,5.0,6.0,6.0,6.0,2.0,2.0,3.0,2.0,4.0,5.0,1.0,2.0,4.0,2.0,4.0,4.0,5.0,5.0,1.0,4.0,,6.0,5.0,5.0,4.0,5.0,1.0,,2.8,3.333333,3.666667,3.333333,2.666667,3.666667,5.666667,5.6
100899,1895,2020-03-31 00:59:08,SME,42,Female,"Some College, short continuing education or equivalent",,Full time employed,United States,yes,,Married/cohabiting,4.0,Yes,Life carries on with minor changes,,,,Program D,No,3.0,4.0,3.0,5.0,4.0,2.0,3.0,4.0,2.0,2.0,2.0,,4.0,8.0,9.0,8.0,9.0,8.0,8.0,7.0,9.0,1.0,1.0,1.0,1.0,1.0,9.0,5.0,2.0,5.0,4.0,6.0,3.0,3.0,3.0,5.0,5.0,5.0,5.0,5.0,5.0,5.0,5.0,5.0,6.0,4.0,4.0,6.0,6.0,2.0,3.0,2.0,3.0,1.0,4.0,2.0,2.0,3.0,3.0,1.0,6.0,2.0,3.0,3.0,4.0,4.0,5.0,3.0,3.0,4.0,2.0,1.0,,5.0,5.0,5.0,5.0,5.0,4.0,5.0,5.0,5.0,5.0,5.0,2.0,5.0,1.0,5.0,5.0,3.0,2.0,2.0,6.0,5.0,6.0,5.0,4.0,6.0,5.0,,4.0,5.0,5.0,5.0,5.0,5.0,,2.4,3.0,2.666667,4.0,5.0,4.333333,4.333333,4.9
101262,2664,2020-03-31 00:39:30,EN,49,Male,"College degree, bachelor, master",Up to 12 years of school,Full time employed,United States,no,California,Single,1.0,Yes,Life carries on with minor changes,0.0,0.0,,Program D,Yes,3.0,2.0,3.0,4.0,3.0,3.0,3.0,3.0,3.0,2.0,4.0,3.0,4.0,3.0,5.0,6.0,5.0,7.0,,7.0,5.0,6.0,6.0,6.0,6.0,6.0,3.0,6.0,6.0,6.0,4.0,2.0,5.0,4.0,5.0,5.0,5.0,2.0,5.0,5.0,5.0,3.0,3.0,4.0,5.0,5.0,2.0,5.0,5.0,5.0,1.0,6.0,1.0,5.0,2.0,1.0,1.0,6.0,2.0,5.0,3.0,4.0,4.0,4.0,1.0,6.0,2.0,2.0,2.0,2.0,5.0,5.0,,5.0,6.0,5.0,4.0,6.0,5.0,6.0,3.0,6.0,5.0,5.0,5.0,5.0,5.0,5.0,6.0,2.0,1.0,6.0,3.0,4.0,5.0,5.0,5.0,4.0,5.0,,5.0,5.0,3.0,5.0,6.0,5.0,,2.7,3.666667,3.666667,3.0,4.333333,4.333333,5.0,5.1
101305,512,2020-04-01 00:01:42,EN,51,Female,PhD/Doctorate,College degree,Retired,United States,no,Ca,Divorced/widowed,2.0,Yes,Isolated,1.0,2.0,Program A,,Not sure,3.0,2.0,3.0,4.0,4.0,2.0,5.0,4.0,2.0,2.0,3.0,3.0,3.0,6.0,8.0,8.0,8.0,9.0,9.0,8.0,6.0,5.0,5.0,5.0,6.0,6.0,5.0,5.0,5.0,5.0,3.0,5.0,5.0,5.0,5.0,4.0,2.0,4.0,3.0,5.0,4.0,4.0,3.0,5.0,6.0,5.0,2.0,4.0,,,,,,,,,,,,,,,,,,,,,,,,,,,,,,,,,,,,,,,,,,,,,,,,,,,,,,,,,,,,2.1,3.0,4.333333,3.333333,4.333333,5.0,4.666667,
101354,1732,2020-03-31 00:17:18,EN,53,Female,"College degree, bachelor, master",Up to 12 years of school,Full time employed,United States,no,Iowa,Divorced/widowed,0.0,No,Life carries on with minor changes,,,,Program C,No,3.0,2.0,4.0,4.0,3.0,2.0,4.0,4.0,3.0,3.0,3.0,2.0,3.0,6.0,8.0,0.0,6.0,6.0,7.0,8.0,1.0,6.0,6.0,6.0,6.0,6.0,0.0,6.0,5.0,5.0,1.0,2.0,1.0,5.0,4.0,5.0,2.0,2.0,4.0,4.0,6.0,3.0,2.0,6.0,6.0,2.0,2.0,5.0,2.0,,99.0,2.0,2.0,1.0,2.0,4.0,99.0,6.0,4.0,4.0,5.0,5.0,2.0,2.0,2.0,4.0,4.0,4.0,4.0,2.0,4.0,2.0,,5.0,5.0,4.0,4.0,5.0,5.0,4.0,5.0,2.0,4.0,3.0,3.0,5.0,5.0,4.0,5.0,1.0,1.0,5.0,4.0,3.0,,2.0,2.0,5.0,5.0,,1.0,4.0,5.0,2.0,4.0,5.0,,2.6,2.666667,3.666667,2.333333,4.333333,5.666667,4.0,4.3
101425,755,2020-03-30 23:55:37,SME,24,Female,"College degree, bachelor, master",Up to 12 years of school,Full time employed,United States,no,,Single,0.0,Yes,Isolated,3.0,0.0,Program A,,No,2.0,3.0,5.0,3.0,3.0,3.0,4.0,3.0,3.0,3.0,3.0,1.0,3.0,6.0,8.0,8.0,8.0,7.0,8.0,9.0,8.0,4.0,6.0,5.0,5.0,5.0,5.0,6.0,5.0,5.0,1.0,4.0,4.0,6.0,6.0,4.0,4.0,3.0,4.0,4.0,5.0,5.0,2.0,4.0,5.0,5.0,4.0,4.0,4.0,2.0,1.0,4.0,2.0,5.0,1.0,6.0,1.0,3.0,1.0,6.0,6.0,6.0,2.0,2.0,2.0,4.0,4.0,5.0,5.0,2.0,6.0,5.0,,6.0,5.0,6.0,6.0,6.0,5.0,6.0,5.0,4.0,6.0,4.0,5.0,5.0,1.0,1.0,5.0,1.0,1.0,6.0,4.0,4.0,1.0,1.0,5.0,1.0,5.0,,5.0,4.0,5.0,2.0,4.0,2.0,,3.0,2.333333,5.0,3.333333,4.666667,4.666667,4.0,5.5
101508,1189,2020-03-30 23:56:33,EN,43,Female,PhD/Doctorate,Some College or equivalent,Self-employed,United States,no,Florida,Married/cohabiting,0.0,Yes,Isolated,1.0,0.0,,Program D,Not sure,2.0,3.0,3.0,4.0,3.0,1.0,2.0,3.0,2.0,2.0,4.0,4.0,4.0,3.0,7.0,6.0,7.0,7.0,6.0,7.0,6.0,5.0,6.0,5.0,5.0,5.0,7.0,6.0,6.0,6.0,5.0,3.0,5.0,5.0,4.0,5.0,5.0,3.0,6.0,5.0,4.0,4.0,2.0,4.0,5.0,5.0,3.0,6.0,5.0,5.0,2.0,5.0,5.0,4.0,2.0,2.0,2.0,5.0,4.0,5.0,6.0,6.0,5.0,4.0,5.0,4.0,4.0,4.0,5.0,2.0,5.0,3.0,,4.0,3.0,3.0,4.0,4.0,5.0,5.0,5.0,4.0,4.0,5.0,3.0,5.0,2.0,5.0,4.0,2.0,2.0,5.0,4.0,4.0,5.0,5.0,5.0,2.0,5.0,,5.0,5.0,5.0,3.0,4.0,2.0,,2.5,4.0,3.666667,3.0,4.333333,4.666667,5.0,4.1
101524,1273,2020-03-30 23:56:27,EN,50,Female,PhD/Doctorate,Up to 12 years of school,Full time employed,United States,no,Ohio,Married/cohabiting,3.0,Yes,Life carries on as usual,,,Program B,,No,3.0,4.0,4.0,4.0,2.0,4.0,3.0,4.0,5.0,3.0,3.0,3.0,3.0,0.0,4.0,0.0,7.0,5.0,2.0,7.0,0.0,5.0,6.0,6.0,6.0,6.0,0.0,6.0,5.0,5.0,2.0,1.0,2.0,6.0,2.0,6.0,5.0,5.0,2.0,4.0,6.0,4.0,4.0,4.0,5.0,5.0,4.0,6.0,5.0,5.0,6.0,99.0,4.0,4.0,99.0,6.0,99.0,6.0,6.0,6.0,6.0,5.0,5.0,5.0,4.0,4.0,2.0,5.0,4.0,99.0,5.0,2.0,,6.0,6.0,6.0,6.0,6.0,6.0,6.0,6.0,5.0,6.0,1.0,6.0,6.0,5.0,5.0,1.0,5.0,4.0,5.0,6.0,6.0,2.0,5.0,4.0,4.0,2.0,,5.0,6.0,6.0,5.0,3.0,1.0,"I am a family physician and have had to make major changes in how I interact with patients, and the uncertainties regarding where I will be needed most when the virus peaks is worrisome- I do both outpatient and inpatient care, but am ready to do all inpatient care if needed",3.4,3.0,3.0,5.0,4.666667,4.0,4.666667,5.9
101535,593,2020-03-30 23:44:24,ZH-T,37,Female,PhD/Doctorate,Some College or equivalent,Full time employed,United States,yes,GEORGIA,Single,1.0,Yes,Isolated,1.0,1.0,,Program D,,4.0,4.0,4.0,4.0,3.0,2.0,2.0,2.0,4.0,3.0,2.0,2.0,4.0,6.0,8.0,4.0,3.0,4.0,4.0,1.0,2.0,4.0,6.0,5.0,5.0,4.0,0.0,4.0,6.0,6.0,2.0,2.0,6.0,5.0,5.0,4.0,4.0,5.0,3.0,4.0,4.0,3.0,2.0,6.0,6.0,5.0,5.0,5.0,3.0,3.0,3.0,3.0,3.0,2.0,2.0,6.0,6.0,6.0,3.0,4.0,6.0,6.0,3.0,3.0,3.0,3.0,5.0,4.0,6.0,3.0,6.0,5.0,,6.0,5.0,5.0,4.0,5.0,5.0,5.0,5.0,5.0,5.0,5.0,5.0,5.0,3.0,5.0,5.0,3.0,3.0,3.0,4.0,5.0,4.0,3.0,3.0,4.0,5.0,,3.0,5.0,5.0,3.0,5.0,4.0,,3.4,2.666667,4.333333,4.333333,3.666667,5.666667,4.0,5.0
101540,1145,2020-03-30 23:53:14,SME,59,Female,"College degree, bachelor, master",Up to 9 years of school,Full time employed,United States,yes,IN,Other or would rather not say,0.0,Yes,Isolated,2.0,0.0,,,,4.0,2.0,5.0,4.0,4.0,3.0,4.0,3.0,4.0,3.0,3.0,3.0,3.0,5.0,7.0,3.0,5.0,4.0,4.0,6.0,3.0,5.0,5.0,5.0,6.0,6.0,3.0,5.0,5.0,5.0,2.0,,3.0,3.0,1.0,5.0,6.0,6.0,5.0,6.0,6.0,6.0,1.0,6.0,6.0,4.0,2.0,5.0,4.0,3.0,2.0,3.0,4.0,2.0,5.0,2.0,1.0,6.0,5.0,6.0,5.0,6.0,2.0,2.0,2.0,2.0,2.0,2.0,2.0,2.0,4.0,2.0,,5.0,5.0,5.0,5.0,5.0,5.0,5.0,5.0,5.0,5.0,5.0,4.0,5.0,4.0,5.0,4.0,1.0,1.0,5.0,5.0,5.0,2.0,5.0,4.0,5.0,5.0,,5.0,4.0,4.0,3.0,5.0,1.0,La falta de transparencia de nuestros gobernantes y oficiales de salud pública,3.0,3.0,2.0,4.666667,6.0,6.0,4.666667,5.0
101667,859,2020-03-30 23:39:52,EN,61,Male,PhD/Doctorate,College degree,Full time employed,United States,no,Illinois,,0.0,Yes,Isolated,0.0,0.0,,Program C,No,2.0,1.0,2.0,4.0,4.0,1.0,4.0,4.0,1.0,1.0,3.0,2.0,3.0,9.0,9.0,7.0,5.0,9.0,5.0,9.0,7.0,5.0,5.0,5.0,5.0,5.0,2.0,6.0,5.0,5.0,2.0,4.0,2.0,5.0,2.0,5.0,4.0,1.0,5.0,5.0,5.0,4.0,4.0,5.0,5.0,4.0,2.0,5.0,2.0,2.0,2.0,2.0,2.0,2.0,2.0,2.0,1.0,4.0,2.0,2.0,4.0,4.0,4.0,2.0,2.0,2.0,2.0,2.0,2.0,2.0,2.0,2.0,,5.0,5.0,5.0,3.0,5.0,5.0,5.0,4.0,5.0,5.0,4.0,2.0,4.0,2.0,4.0,5.0,1.0,2.0,5.0,3.0,2.0,4.0,2.0,5.0,5.0,4.0,,2.0,5.0,2.0,2.0,5.0,4.0,,1.6,2.666667,3.0,2.333333,4.666667,4.333333,4.666667,4.7
101739,707,2020-03-30 23:31:46,ZH-T,34,Female,"College degree, bachelor, master",Up to 12 years of school,Not employed,United States,yes,<U+52A0><U+5DDE>,Married/cohabiting,0.0,No,Isolated,1.0,0.0,Program A,,No,4.0,4.0,5.0,1.0,1.0,3.0,2.0,1.0,3.0,4.0,1.0,1.0,3.0,6.0,8.0,5.0,7.0,7.0,5.0,1.0,1.0,6.0,5.0,4.0,6.0,5.0,3.0,2.0,6.0,5.0,2.0,3.0,6.0,5.0,5.0,2.0,5.0,5.0,3.0,4.0,5.0,5.0,2.0,6.0,5.0,3.0,5.0,5.0,3.0,99.0,99.0,4.0,6.0,4.0,99.0,1.0,99.0,6.0,5.0,5.0,5.0,5.0,3.0,2.0,4.0,2.0,4.0,4.0,6.0,4.0,4.0,5.0,,6.0,4.0,6.0,6.0,6.0,6.0,6.0,6.0,6.0,6.0,2.0,5.0,5.0,3.0,5.0,5.0,5.0,5.0,5.0,5.0,5.0,2.0,3.0,5.0,3.0,2.0,,2.0,5.0,5.0,2.0,5.0,5.0,,4.2,1.666667,5.0,4.666667,4.666667,5.333333,3.333333,5.8
101799,704,2020-03-31 23:26:44,LT,26,Male,"College degree, bachelor, master",Up to 12 years of school,Full time employed,United States,no,NY,Married/cohabiting,0.0,No,Isolated,0.0,0.0,,Program D,No,3.0,3.0,4.0,3.0,3.0,2.0,4.0,5.0,3.0,2.0,5.0,4.0,5.0,7.0,9.0,6.0,7.0,6.0,1.0,8.0,0.0,3.0,4.0,4.0,6.0,5.0,0.0,6.0,6.0,6.0,1.0,1.0,6.0,4.0,5.0,2.0,6.0,4.0,4.0,5.0,6.0,6.0,4.0,6.0,6.0,6.0,5.0,6.0,2.0,2.0,99.0,5.0,5.0,6.0,1.0,99.0,99.0,5.0,1.0,4.0,4.0,5.0,5.0,5.0,99.0,6.0,6.0,3.0,5.0,1.0,6.0,6.0,,,,,,,,,,,,,,,,,,,,,,,,,,,,,,,,,,,,2.6,4.666667,4.666667,4.333333,5.666667,5.0,4.666667,
101852,824,2020-03-30 23:24:17,EN,43,Female,"College degree, bachelor, master",College degree,Not employed,United States,no,New York,Married/cohabiting,2.0,Yes,Isolated,2.0,2.0,Program A,,No,3.0,3.0,4.0,5.0,3.0,2.0,4.0,4.0,3.0,2.0,1.0,3.0,5.0,7.0,9.0,3.0,5.0,7.0,5.0,8.0,3.0,5.0,5.0,4.0,6.0,6.0,0.0,5.0,6.0,6.0,1.0,2.0,4.0,4.0,3.0,6.0,5.0,3.0,4.0,5.0,6.0,6.0,4.0,5.0,6.0,5.0,3.0,4.0,4.0,99.0,6.0,6.0,5.0,4.0,99.0,1.0,4.0,5.0,3.0,5.0,6.0,5.0,99.0,2.0,1.0,3.0,2.0,2.0,4.0,1.0,5.0,1.0,,6.0,6.0,6.0,6.0,6.0,6.0,6.0,6.0,4.0,6.0,3.0,6.0,6.0,1.0,6.0,6.0,3.0,1.0,4.0,6.0,4.0,5.0,5.0,5.0,1.0,5.0,,3.0,6.0,6.0,4.0,4.0,3.0,,2.5,3.0,2.666667,3.666667,5.666667,4.666667,4.333333,5.8
101880,785,2020-03-30 23:21:26,EN,35,Female,"College degree, bachelor, master",College degree,Self-employed,United States,no,Florida,Single,0.0,Yes,Isolated,1.0,0.0,,Program C,No,4.0,4.0,4.0,3.0,2.0,5.0,2.0,3.0,4.0,5.0,5.0,5.0,4.0,5.0,7.0,1.0,1.0,2.0,3.0,6.0,2.0,5.0,6.0,6.0,5.0,6.0,0.0,4.0,6.0,6.0,1.0,2.0,5.0,5.0,6.0,4.0,6.0,5.0,3.0,6.0,5.0,6.0,6.0,5.0,4.0,4.0,6.0,5.0,4.0,6.0,99.0,6.0,6.0,5.0,99.0,2.0,99.0,4.0,6.0,6.0,6.0,6.0,4.0,4.0,6.0,6.0,5.0,4.0,5.0,5.0,6.0,5.0,,4.0,4.0,3.0,3.0,4.0,4.0,3.0,4.0,4.0,4.0,5.0,4.0,3.0,4.0,1.0,5.0,1.0,5.0,2.0,4.0,6.0,6.0,6.0,6.0,1.0,4.0,,6.0,6.0,6.0,6.0,6.0,4.0,,4.0,4.666667,4.666667,5.0,5.666667,3.333333,3.333333,3.7
101949,672,2020-03-30 23:14:40,SME,41,Female,PhD/Doctorate,Some College or equivalent,Self-employed,United States,yes,Seattle,Married/cohabiting,0.0,Yes,Life carries on with minor changes,1.0,0.0,,Program D,No,2.0,4.0,4.0,3.0,3.0,4.0,4.0,2.0,4.0,3.0,4.0,3.0,4.0,6.0,8.0,,,3.0,,5.0,,4.0,5.0,5.0,5.0,4.0,0.0,5.0,5.0,5.0,2.0,5.0,2.0,5.0,5.0,2.0,2.0,2.0,5.0,5.0,4.0,4.0,5.0,2.0,2.0,4.0,2.0,5.0,2.0,2.0,2.0,5.0,2.0,2.0,1.0,2.0,2.0,5.0,2.0,4.0,5.0,5.0,2.0,5.0,4.0,5.0,2.0,4.0,5.0,4.0,5.0,6.0,,5.0,4.0,2.0,4.0,5.0,4.0,5.0,5.0,4.0,5.0,2.0,2.0,5.0,1.0,5.0,2.0,5.0,5.0,5.0,2.0,2.0,6.0,2.0,5.0,1.0,5.0,Mis mascota,5.0,5.0,5.0,5.0,2.0,2.0,,3.3,3.666667,5.0,2.0,4.333333,2.0,4.666667,4.3
101954,840,2020-03-30 23:16:55,EN,47,Female,"College degree, bachelor, master",Some College or equivalent,Full time employed,United States,no,Arizona,Single,0.0,Yes,Isolated,2.0,0.0,,Program D,Not sure,3.0,2.0,4.0,3.0,5.0,2.0,4.0,4.0,2.0,2.0,3.0,3.0,3.0,7.0,9.0,6.0,8.0,9.0,5.0,7.0,4.0,5.0,5.0,5.0,5.0,5.0,4.0,5.0,5.0,5.0,2.0,5.0,3.0,5.0,5.0,4.0,4.0,4.0,3.0,2.0,6.0,1.0,4.0,3.0,4.0,4.0,3.0,5.0,2.0,5.0,99.0,3.0,5.0,5.0,99.0,6.0,99.0,6.0,6.0,5.0,3.0,2.0,99.0,99.0,6.0,6.0,5.0,5.0,5.0,3.0,5.0,99.0,,5.0,2.0,5.0,5.0,5.0,5.0,5.0,6.0,4.0,6.0,2.0,5.0,4.0,3.0,4.0,4.0,4.0,4.0,5.0,5.0,5.0,4.0,5.0,6.0,2.0,4.0,,4.0,5.0,1.0,2.0,2.0,4.0,,2.3,3.0,4.333333,4.0,3.0,3.333333,4.333333,4.8
101965,802,2020-03-30 23:15:20,EN,34,Female,"College degree, bachelor, master",Up to 12 years of school,Full time employed,United States,no,Texas,Married/cohabiting,2.0,Yes,Isolated,1.0,1.0,Program A,,No,3.0,3.0,4.0,4.0,2.0,3.0,3.0,4.0,3.0,2.0,4.0,4.0,4.0,6.0,8.0,2.0,2.0,4.0,3.0,6.0,1.0,5.0,5.0,5.0,6.0,6.0,1.0,5.0,5.0,4.0,4.0,3.0,2.0,4.0,4.0,5.0,3.0,3.0,5.0,4.0,6.0,4.0,2.0,5.0,6.0,6.0,1.0,6.0,3.0,6.0,4.0,4.0,2.0,5.0,99.0,4.0,4.0,5.0,4.0,4.0,4.0,6.0,4.0,4.0,2.0,5.0,6.0,6.0,3.0,2.0,6.0,99.0,,6.0,5.0,5.0,5.0,5.0,5.0,5.0,6.0,5.0,6.0,3.0,3.0,4.0,5.0,4.0,4.0,3.0,2.0,4.0,4.0,3.0,4.0,5.0,4.0,1.0,4.0,,4.0,4.0,4.0,3.0,5.0,4.0,,2.9,4.0,3.333333,2.666667,4.666667,5.333333,6.0,5.3
102062,618,2020-03-30 23:03:44,EN,56,Female,PhD/Doctorate,PhD/Doctorate,Full time employed,United States,no,,Other or would rather not say,0.0,No,Isolated,0.0,0.0,,Program D,No,4.0,1.0,3.0,5.0,3.0,1.0,4.0,4.0,3.0,2.0,3.0,,3.0,6.0,7.0,2.0,7.0,8.0,9.0,10.0,6.0,6.0,6.0,6.0,6.0,6.0,0.0,5.0,5.0,5.0,1.0,1.0,2.0,4.0,5.0,5.0,1.0,2.0,3.0,6.0,6.0,2.0,4.0,5.0,5.0,6.0,1.0,6.0,2.0,1.0,6.0,1.0,2.0,2.0,1.0,99.0,99.0,6.0,2.0,6.0,6.0,3.0,5.0,5.0,99.0,2.0,5.0,99.0,2.0,1.0,6.0,6.0,,6.0,6.0,6.0,6.0,6.0,6.0,6.0,6.0,6.0,6.0,2.0,1.0,4.0,1.0,5.0,4.0,1.0,1.0,2.0,5.0,2.0,2.0,6.0,1.0,1.0,2.0,,6.0,5.0,5.0,5.0,6.0,1.0,,2.2,3.0,3.666667,2.333333,4.666667,4.333333,6.0,6.0
102092,1023,2020-03-30 23:07:32,SME,27,Female,"College degree, bachelor, master",Up to 12 years of school,Full time employed,United States,yes,New Jersey,Single,0.0,No,Isolated,1.0,0.0,Program B,,No,3.0,3.0,3.0,4.0,4.0,2.0,4.0,1.0,2.0,3.0,3.0,3.0,3.0,9.0,9.0,6.0,4.0,5.0,4.0,6.0,4.0,2.0,5.0,4.0,6.0,6.0,5.0,6.0,5.0,5.0,2.0,4.0,1.0,3.0,4.0,3.0,5.0,5.0,2.0,3.0,6.0,3.0,1.0,5.0,5.0,2.0,5.0,5.0,4.0,1.0,99.0,6.0,2.0,4.0,1.0,1.0,99.0,5.0,5.0,4.0,3.0,4.0,1.0,99.0,4.0,3.0,4.0,4.0,2.0,3.0,4.0,6.0,,5.0,4.0,5.0,5.0,6.0,3.0,6.0,6.0,2.0,5.0,6.0,2.0,6.0,2.0,3.0,3.0,3.0,3.0,4.0,6.0,4.0,6.0,4.0,4.0,1.0,6.0,,6.0,6.0,6.0,4.0,6.0,2.0,,2.7,3.0,3.666667,5.0,4.0,5.333333,3.0,4.7
102121,962,2020-03-30 23:04:04,EN,35,Female,"College degree, bachelor, master",College degree,Part time employed,United States,no,Virginia,Single,0.0,Not sure,Life carries on with minor changes,1.0,0.0,,Program C,No,3.0,5.0,5.0,2.0,2.0,4.0,2.0,2.0,3.0,4.0,3.0,2.0,3.0,3.0,7.0,1.0,2.0,7.0,1.0,5.0,1.0,5.0,5.0,5.0,5.0,5.0,0.0,5.0,5.0,5.0,6.0,2.0,4.0,4.0,3.0,5.0,5.0,5.0,2.0,4.0,6.0,5.0,3.0,4.0,4.0,5.0,2.0,5.0,6.0,6.0,99.0,6.0,6.0,3.0,1.0,3.0,99.0,4.0,4.0,6.0,6.0,5.0,4.0,4.0,3.0,4.0,4.0,5.0,4.0,4.0,5.0,99.0,My entire community lost our jobs overnight. We have no support systems in place for us. Gig worker in my country are screwed,5.0,5.0,4.0,4.0,4.0,5.0,5.0,3.0,5.0,5.0,1.0,4.0,4.0,4.0,3.0,2.0,5.0,5.0,1.0,4.0,1.0,1.0,1.0,1.0,1.0,1.0,I dont know. Weve spent so much time closing things down. I havent had time to process any of it,1.0,4.0,4.0,4.0,2.0,3.0,"We dont know how we are going to make rent next month. We will be homeless soon, and our country doesnt care. They want to pay us one payment of $1200 and we are supposed to live on that for 3 months. It isnt going to work. This will keep coming in waves, and we will all die of exposure rather than the virus.",4.0,2.666667,3.0,5.0,5.0,4.0,5.0,4.5
102179,120,2020-03-31 22:47:29,ZH-T,35,Other/would rather not say,PhD/Doctorate,Up to 6 years of school,Student,United States,yes,Indiana,Single,0.0,Yes,Life carries on as usual,0.0,0.0,,Program D,,,,,,,,,,,,,,,,,,,,,,,,,,,,,,,,,,,,,,,,,,,,,,,,,,,,,,,,,,,,,,,,,,,,,,,,,,,,,,,,,,,,,,,,,,,,,,,,,,,,,,,,,,,,,,,,,,,,
102197,1883,2020-03-30 23:11:57,EN,59,Female,PhD/Doctorate,College degree,Retired,United States,no,California,Married/cohabiting,0.0,No,Isolated,1.0,0.0,,Program D,No,2.0,3.0,3.0,4.0,3.0,3.0,3.0,4.0,3.0,3.0,3.0,3.0,5.0,7.0,9.0,5.0,5.0,8.0,5.0,5.0,7.0,1.0,1.0,1.0,1.0,1.0,5.0,1.0,1.0,1.0,1.0,2.0,2.0,5.0,5.0,5.0,4.0,5.0,5.0,4.0,5.0,2.0,5.0,5.0,5.0,5.0,2.0,5.0,5.0,5.0,99.0,99.0,2.0,6.0,5.0,2.0,99.0,6.0,6.0,5.0,5.0,5.0,99.0,6.0,5.0,6.0,6.0,5.0,6.0,5.0,6.0,6.0,Being sensitive to people who are working with public.,5.0,5.0,5.0,4.0,5.0,5.0,5.0,5.0,4.0,5.0,6.0,1.0,6.0,1.0,1.0,5.0,5.0,2.0,5.0,4.0,5.0,5.0,6.0,6.0,5.0,5.0,,3.0,5.0,5.0,2.0,2.0,1.0,Economic down turn and discrimination against Asians impacts my feelings of security.,2.7,3.666667,4.0,3.666667,3.666667,4.0,5.0,4.8
102207,893,2020-03-31 22:54:16,EN,42,Female,"College degree, bachelor, master",Some College or equivalent,Full time employed,United States,no,,Married/cohabiting,1.0,Yes,Isolated,2.0,1.0,Program B,,No,3.0,4.0,4.0,2.0,2.0,3.0,2.0,4.0,4.0,4.0,4.0,5.0,4.0,3.0,5.0,2.0,9.0,6.0,0.0,8.0,5.0,1.0,1.0,1.0,1.0,1.0,9.0,4.0,5.0,5.0,3.0,4.0,5.0,5.0,,3.0,5.0,2.0,5.0,3.0,5.0,2.0,5.0,3.0,4.0,2.0,4.0,2.0,6.0,4.0,6.0,5.0,5.0,6.0,4.0,5.0,5.0,5.0,5.0,6.0,6.0,5.0,4.0,5.0,5.0,6.0,2.0,6.0,2.0,5.0,5.0,99.0,,4.0,3.0,4.0,2.0,4.0,5.0,4.0,5.0,1.0,5.0,5.0,5.0,2.0,5.0,4.0,5.0,4.0,2.0,4.0,5.0,4.0,4.0,3.0,5.0,4.0,4.0,,5.0,5.0,3.0,6.0,5.0,4.0,,3.6,4.333333,4.5,3.0,3.333333,3.0,2.333333,3.7
102273,834,2020-03-30 22:45:46,EN,31,Other/would rather not say,"College degree, bachelor, master",Some College or equivalent,Not employed,United States,no,Virgina,Divorced/widowed,2.0,Yes,Life carries on as usual,1.0,1.0,Program A,,No,3.0,4.0,3.0,4.0,1.0,2.0,2.0,4.0,4.0,2.0,3.0,2.0,3.0,2.0,6.0,2.0,2.0,3.0,1.0,3.0,2.0,2.0,4.0,5.0,4.0,5.0,2.0,5.0,5.0,5.0,1.0,2.0,3.0,6.0,5.0,6.0,1.0,1.0,4.0,4.0,4.0,5.0,2.0,3.0,5.0,4.0,4.0,4.0,4.0,3.0,1.0,4.0,3.0,2.0,99.0,4.0,3.0,3.0,5.0,4.0,4.0,4.0,99.0,1.0,2.0,4.0,1.0,2.0,6.0,2.0,4.0,5.0,,4.0,4.0,5.0,4.0,5.0,4.0,5.0,4.0,4.0,5.0,1.0,4.0,5.0,1.0,2.0,4.0,1.0,1.0,5.0,3.0,2.0,2.0,3.0,5.0,4.0,1.0,Dog,1.0,5.0,2.0,2.0,4.0,3.0,,3.1,2.666667,4.0,1.666667,4.333333,4.333333,3.666667,4.4
102300,1094,2020-03-30 22:48:02,EN,35,Female,"College degree, bachelor, master",College degree,Student,United States,no,Pennsylvania,Single,0.0,Yes,Life carries on with minor changes,2.0,0.0,,Program D,Yes,2.0,3.0,4.0,4.0,3.0,3.0,4.0,1.0,2.0,2.0,3.0,2.0,4.0,7.0,9.0,3.0,5.0,6.0,9.0,10.0,3.0,2.0,5.0,6.0,5.0,5.0,2.0,5.0,4.0,5.0,2.0,3.0,4.0,4.0,4.0,4.0,6.0,4.0,3.0,4.0,5.0,3.0,2.0,5.0,5.0,5.0,4.0,5.0,1.0,6.0,99.0,2.0,4.0,4.0,99.0,5.0,99.0,5.0,2.0,5.0,6.0,6.0,4.0,3.0,1.0,5.0,4.0,2.0,2.0,3.0,4.0,2.0,No structure to my day makes it hard to be productive,6.0,5.0,5.0,5.0,6.0,6.0,5.0,5.0,5.0,5.0,3.0,4.0,5.0,2.0,4.0,5.0,1.0,1.0,5.0,4.0,4.0,4.0,4.0,4.0,2.0,2.0,My kitten!,4.0,6.0,3.0,4.0,6.0,5.0,The idiocy of our leadership is distressing. The readiness of individuals to help each other is reassuring.,2.8,3.0,3.666667,4.666667,4.0,5.0,4.333333,5.3
102443,739,2020-03-31 22:32:33,SME,46,Female,PhD/Doctorate,PhD/Doctorate,Full time employed,United States,yes,,Married/cohabiting,2.0,Yes,Isolated,1.0,2.0,,Program C,No,1.0,1.0,3.0,5.0,5.0,1.0,,5.0,2.0,1.0,1.0,1.0,3.0,9.0,10.0,5.0,10.0,10.0,5.0,10.0,3.0,1.0,4.0,1.0,3.0,6.0,0.0,6.0,6.0,5.0,4.0,6.0,1.0,5.0,5.0,5.0,6.0,5.0,5.0,4.0,6.0,2.0,1.0,6.0,6.0,6.0,1.0,6.0,,,,,,,,,,,,,,,,,,,,,,,,,,,,,,,,,,,,,,,,,,,,,,,,,,,,,,,,,,,,1.333333,1.666667,4.0,4.333333,4.0,6.0,6.0,
102500,1104,2020-03-30 22:29:18,EN,44,Female,PhD/Doctorate,Up to 12 years of school,Full time employed,United States,no,Michigan,Single,0.0,No,Isolated,0.0,0.0,Program A,,No,1.0,2.0,2.0,5.0,4.0,2.0,5.0,4.0,2.0,1.0,2.0,1.0,2.0,7.0,9.0,3.0,7.0,8.0,5.0,10.0,1.0,3.0,1.0,5.0,5.0,5.0,1.0,6.0,5.0,5.0,2.0,2.0,3.0,1.0,1.0,4.0,4.0,3.0,4.0,2.0,3.0,4.0,1.0,5.0,6.0,4.0,2.0,6.0,1.0,3.0,99.0,1.0,2.0,2.0,1.0,99.0,99.0,5.0,1.0,4.0,3.0,1.0,6.0,3.0,1.0,2.0,1.0,1.0,1.0,99.0,3.0,1.0,,6.0,6.0,6.0,6.0,5.0,6.0,5.0,6.0,6.0,6.0,4.0,1.0,6.0,1.0,4.0,5.0,1.0,1.0,1.0,3.0,2.0,4.0,6.0,1.0,1.0,3.0,,1.0,6.0,1.0,1.0,4.0,3.0,Having my dogs has really helped with feeling less isolated.,1.6,1.666667,1.666667,3.333333,3.0,5.666667,5.0,5.8
102546,1072,2020-03-31 22:23:58,ZH-T,35,Other/would rather not say,PhD/Doctorate,Some College or equivalent,Student,United States,yes,California,Married/cohabiting,0.0,Yes,Life carries on with minor changes,,,,Program D,,,,,,,,,,,,,,,,,,,,,,,,,,,,,,,,,,,,,,,,,,,,,,,,,,,,,,,,,,,,,,,,,,,,,,,,,,,,,,,,,,,,,,,,,,,,,,,,,,,,,,,,,,,,,,,,,,,,
102566,571,2020-03-30 22:12:41,ZH-T,39,Female,"College degree, bachelor, master",PhD/Doctorate,Full time employed,United States,yes,Georgia,Married/cohabiting,0.0,No,Life carries on with minor changes,0.0,0.0,,Program D,No,3.0,2.0,2.0,3.0,3.0,2.0,2.0,2.0,3.0,2.0,1.0,1.0,1.0,8.0,8.0,7.0,9.0,9.0,7.0,0.0,3.0,5.0,5.0,5.0,6.0,5.0,0.0,3.0,6.0,6.0,1.0,2.0,6.0,3.0,4.0,4.0,6.0,6.0,2.0,6.0,5.0,4.0,1.0,6.0,6.0,4.0,1.0,5.0,5.0,5.0,99.0,5.0,4.0,4.0,5.0,4.0,99.0,6.0,4.0,5.0,4.0,5.0,99.0,2.0,2.0,2.0,4.0,2.0,6.0,5.0,6.0,6.0,,5.0,5.0,3.0,5.0,5.0,5.0,5.0,5.0,5.0,5.0,2.0,5.0,5.0,2.0,5.0,5.0,2.0,2.0,5.0,4.0,5.0,2.0,2.0,5.0,5.0,4.0,,4.0,5.0,4.0,3.0,4.0,2.0,,2.8,1.0,3.333333,5.666667,5.0,6.0,5.0,4.8
102590,295,2020-03-31 22:04:49,LT,59,Female,"College degree, bachelor, master",College degree,Full time employed,United States,yes,Maine,Married/cohabiting,0.0,Yes,Life carries on with minor changes,1.0,0.0,,Program D,,,,,,,,,,,,,,,,,,,,,,,,,,,,,,,,,,,,,,,,,,,,,,,,,,,,,,,,,,,,,,,,,,,,,,,,,,,,,,,,,,,,,,,,,,,,,,,,,,,,,,,,,,,,,,,,,,,,
102630,871,2020-03-30 22:09:52,ZH-T,46,Female,PhD/Doctorate,College degree,Full time employed,United States,yes,,Married/cohabiting,0.0,No,Life carries on with minor changes,,,,Program C,No,4.0,1.0,4.0,4.0,3.0,1.0,4.0,3.0,4.0,1.0,1.0,1.0,1.0,6.0,8.0,6.0,8.0,4.0,4.0,0.0,5.0,3.0,3.0,3.0,4.0,4.0,2.0,3.0,6.0,6.0,2.0,2.0,5.0,5.0,5.0,5.0,4.0,5.0,3.0,4.0,5.0,4.0,4.0,5.0,3.0,6.0,4.0,5.0,3.0,5.0,99.0,2.0,4.0,1.0,99.0,1.0,99.0,6.0,5.0,6.0,99.0,1.0,2.0,2.0,2.0,1.0,2.0,3.0,6.0,1.0,5.0,2.0,,5.0,5.0,5.0,5.0,5.0,5.0,5.0,5.0,5.0,5.0,5.0,5.0,5.0,5.0,5.0,5.0,5.0,5.0,5.0,5.0,5.0,5.0,5.0,5.0,5.0,5.0,,6.0,5.0,6.0,2.0,6.0,1.0,,2.5,1.0,4.0,4.333333,4.333333,3.666667,4.666667,5.0
102634,937,2020-03-31 22:10:44,SME,56,Male,PhD/Doctorate,Up to 6 years of school,Full time employed,United States,yes,Texas,Married/cohabiting,3.0,No,Life carries on with minor changes,3.0,0.0,,Program D,No,4.0,2.0,4.0,5.0,3.0,3.0,4.0,4.0,4.0,3.0,3.0,2.0,3.0,7.0,6.0,7.0,10.0,7.0,6.0,9.0,5.0,6.0,6.0,6.0,6.0,6.0,1.0,6.0,6.0,6.0,4.0,5.0,2.0,6.0,4.0,5.0,3.0,5.0,3.0,4.0,6.0,4.0,3.0,5.0,6.0,6.0,1.0,6.0,,,,,,,,,,,,,,,,,,,,,,,,,,,,,,,,,,,,,,,,,,,,,,,,,,,,,,,,,,,,2.8,2.666667,4.0,4.0,4.666667,5.0,6.0,
102648,1005,2020-03-30 22:09:35,EN,51,Female,"College degree, bachelor, master",Up to 12 years of school,Full time employed,United States,no,Nebraska,Married/cohabiting,2.0,No,Life carries on with minor changes,,,Program B,,No,3.0,2.0,3.0,4.0,4.0,2.0,4.0,3.0,3.0,3.0,2.0,2.0,2.0,6.0,3.0,0.0,1.0,1.0,0.0,1.0,0.0,3.0,4.0,4.0,4.0,4.0,10.0,4.0,6.0,5.0,2.0,4.0,4.0,5.0,4.0,5.0,1.0,1.0,5.0,5.0,6.0,2.0,2.0,4.0,5.0,4.0,1.0,5.0,5.0,2.0,1.0,5.0,2.0,5.0,5.0,2.0,2.0,6.0,2.0,2.0,4.0,5.0,2.0,6.0,2.0,2.0,5.0,3.0,2.0,3.0,4.0,2.0,Lack of opportunities for herd immunity to develop,4.0,4.0,4.0,5.0,5.0,5.0,5.0,5.0,5.0,5.0,1.0,4.0,5.0,2.0,2.0,2.0,2.0,2.0,4.0,4.0,1.0,1.0,4.0,4.0,4.0,1.0,,1.0,4.0,2.0,2.0,2.0,1.0,The corruption of the US Government is without limits.,2.5,2.0,3.666667,1.333333,4.333333,4.666667,5.0,4.7
102714,765,2020-03-30 21:56:41,SME,53,Male,"Some College, short continuing education or equivalent",Some College or equivalent,Not employed,United States,yes,California,Single,0.0,Yes,Isolated,0.0,0.0,,Program D,No,2.0,4.0,1.0,3.0,5.0,2.0,4.0,2.0,2.0,1.0,2.0,1.0,3.0,2.0,4.0,0.0,6.0,0.0,0.0,6.0,0.0,6.0,6.0,5.0,6.0,6.0,1.0,6.0,6.0,6.0,1.0,2.0,4.0,4.0,4.0,5.0,4.0,2.0,6.0,6.0,6.0,6.0,3.0,3.0,4.0,5.0,3.0,6.0,2.0,1.0,99.0,99.0,3.0,1.0,1.0,99.0,1.0,2.0,6.0,6.0,6.0,6.0,2.0,2.0,1.0,99.0,1.0,2.0,4.0,6.0,3.0,6.0,,5.0,5.0,1.0,5.0,5.0,5.0,5.0,5.0,4.0,5.0,1.0,1.0,6.0,1.0,6.0,6.0,1.0,3.0,6.0,3.0,5.0,1.0,5.0,4.0,1.0,3.0,,6.0,6.0,6.0,2.0,6.0,3.0,,2.2,2.0,3.333333,2.333333,6.0,3.666667,5.0,4.5
102732,630,2020-03-30 21:51:52,ZH-T,38,Male,PhD/Doctorate,Some College or equivalent,Full time employed,United States,yes,Texas,Single,0.0,No,Life carries on with minor changes,0.0,0.0,,Program D,No,3.0,3.0,3.0,4.0,3.0,1.0,5.0,4.0,1.0,3.0,4.0,2.0,5.0,4.0,6.0,4.0,5.0,5.0,5.0,0.0,6.0,5.0,4.0,3.0,6.0,3.0,4.0,5.0,5.0,5.0,4.0,2.0,5.0,4.0,4.0,4.0,4.0,3.0,4.0,5.0,5.0,5.0,5.0,5.0,4.0,4.0,4.0,5.0,5.0,6.0,99.0,6.0,4.0,3.0,99.0,99.0,99.0,5.0,6.0,4.0,99.0,6.0,3.0,2.0,2.0,6.0,5.0,6.0,5.0,2.0,6.0,6.0,<U+4E0D><U+597D><U+61C2><U+7684><U+554F><U+984C>,2.0,3.0,2.0,2.0,2.0,4.0,2.0,2.0,5.0,4.0,6.0,3.0,4.0,3.0,3.0,4.0,4.0,5.0,5.0,5.0,5.0,5.0,4.0,5.0,4.0,6.0,,6.0,5.0,4.0,2.0,3.0,5.0,,2.2,3.666667,3.666667,3.333333,5.0,3.666667,4.0,2.8
102737,752,2020-03-30 21:53:31,EN,30,Female,"College degree, bachelor, master",College degree,Not employed,United States,no,california,Single,0.0,Yes,Isolated,2.0,0.0,,Program C,Yes,2.0,4.0,4.0,1.0,1.0,3.0,2.0,1.0,3.0,2.0,1.0,1.0,5.0,7.0,9.0,8.0,1.0,,6.0,10.0,0.0,4.0,6.0,4.0,6.0,6.0,0.0,6.0,6.0,6.0,6.0,4.0,2.0,6.0,4.0,2.0,5.0,2.0,6.0,5.0,6.0,5.0,4.0,6.0,5.0,1.0,5.0,6.0,99.0,99.0,99.0,99.0,2.0,5.0,1.0,2.0,99.0,6.0,3.0,6.0,6.0,6.0,99.0,5.0,2.0,6.0,5.0,2.0,1.0,1.0,2.0,1.0,,6.0,6.0,6.0,6.0,6.0,6.0,6.0,6.0,6.0,6.0,5.0,6.0,6.0,1.0,1.0,4.0,4.0,1.0,4.0,2.0,1.0,6.0,1.0,1.0,1.0,6.0,,6.0,6.0,2.0,1.0,4.0,1.0,The federal government's terrible response had made me feel very unsafe. my state's response is reassuring,3.7,2.333333,5.0,2.666667,5.333333,4.666667,3.0,6.0
102784,607,2020-03-30 21:45:38,EN,33,Female,"College degree, bachelor, master",College degree,Full time employed,United States,no,Mi,Single,0.0,Yes,Isolated,3.0,0.0,Program A,,No,4.0,3.0,4.0,5.0,3.0,1.0,4.0,3.0,4.0,2.0,3.0,2.0,1.0,3.0,8.0,0.0,5.0,9.0,0.0,10.0,0.0,6.0,6.0,5.0,5.0,5.0,0.0,6.0,6.0,6.0,1.0,1.0,6.0,6.0,6.0,2.0,3.0,3.0,3.0,6.0,6.0,4.0,1.0,6.0,6.0,4.0,4.0,4.0,6.0,6.0,99.0,6.0,4.0,3.0,99.0,1.0,99.0,1.0,6.0,6.0,6.0,4.0,99.0,4.0,1.0,1.0,1.0,1.0,1.0,1.0,1.0,1.0,Distressed by job security but im scared to go to work,6.0,4.0,6.0,6.0,6.0,3.0,6.0,6.0,6.0,6.0,4.0,6.0,5.0,1.0,1.0,6.0,1.0,1.0,6.0,1.0,1.0,4.0,5.0,6.0,1.0,5.0,,6.0,6.0,6.0,1.0,6.0,1.0,"I live in Michigan,  USA. Our governor has pissed off the president. He is now withholding medical supplies. This is the world I live in and we are just pawns in his sick fucking game.",2.7,2.0,5.666667,3.333333,5.333333,6.0,3.666667,5.5
102786,841,2020-03-30 21:49:01,ZH-T,30,Female,PhD/Doctorate,College degree,Student,United States,yes,Illinois,Single,0.0,No,Life carries on with minor changes,,,,Program D,,3.0,3.0,3.0,4.0,4.0,3.0,4.0,4.0,1.0,2.0,4.0,3.0,1.0,7.0,9.0,7.0,7.0,7.0,5.0,3.0,5.0,3.0,3.0,3.0,5.0,4.0,2.0,4.0,6.0,6.0,2.0,5.0,5.0,4.0,4.0,5.0,5.0,4.0,4.0,4.0,4.0,6.0,1.0,6.0,6.0,4.0,4.0,5.0,1.0,4.0,99.0,4.0,3.0,1.0,99.0,1.0,99.0,4.0,4.0,4.0,3.0,3.0,1.0,1.0,1.0,4.0,1.0,1.0,5.0,1.0,1.0,1.0,,6.0,2.0,4.0,6.0,6.0,4.0,6.0,6.0,4.0,4.0,6.0,4.0,6.0,4.0,6.0,5.0,1.0,1.0,6.0,3.0,6.0,6.0,2.0,6.0,1.0,6.0,,4.0,6.0,6.0,4.0,6.0,3.0,,2.3,2.666667,3.333333,4.0,4.666667,6.0,4.0,4.8
102808,1393,2020-03-30 21:55:27,EN,58,Female,"College degree, bachelor, master",PhD/Doctorate,Retired,United States,no,NC,Married/cohabiting,1.0,Yes,Isolated,1.0,0.0,,Program D,No,2.0,2.0,5.0,4.0,4.0,3.0,3.0,3.0,2.0,2.0,1.0,1.0,3.0,1.0,3.0,0.0,9.0,9.0,4.0,5.0,0.0,6.0,6.0,6.0,6.0,6.0,0.0,6.0,6.0,6.0,1.0,1.0,1.0,4.0,4.0,4.0,6.0,6.0,3.0,5.0,6.0,4.0,1.0,4.0,5.0,4.0,1.0,5.0,,99.0,4.0,99.0,6.0,5.0,99.0,1.0,99.0,6.0,5.0,6.0,6.0,6.0,99.0,1.0,1.0,1.0,1.0,99.0,99.0,1.0,5.0,99.0,I am not sure I understood the questions correctly. I believe that social distancing is necessary. I am worried about my adult children who do not live with me,5.0,6.0,6.0,6.0,6.0,6.0,6.0,6.0,6.0,6.0,4.0,1.0,6.0,1.0,5.0,5.0,1.0,1.0,5.0,3.0,5.0,6.0,5.0,4.0,1.0,5.0,,2.0,5.0,5.0,5.0,4.0,1.0,"The presidents lies and peoples willingness to support him and believe his lies, even in the face of facts that prove he is not telling the truth, are very upsetting to me. He and his followers are putting our country in danger and causing unnecessary deaths. So sad. Our governor, police, and hospitals are doing an Amazon under impossible circumstances. My daughter is disabled. I am afraid that I wont be able to help her if she gets sick. I wish she would come home.",2.6,1.666667,3.666667,5.333333,5.0,5.0,5.0,5.9
102896,1473,2020-03-30 21:47:40,EN,56,Female,"College degree, bachelor, master",Up to 12 years of school,Full time employed,United States,no,Pennsylvania,Married/cohabiting,0.0,Yes,Isolated,2.0,0.0,Program B,,No,5.0,4.0,4.0,4.0,3.0,3.0,3.0,2.0,3.0,3.0,5.0,5.0,5.0,4.0,8.0,4.0,9.0,9.0,4.0,4.0,3.0,3.0,6.0,6.0,6.0,4.0,5.0,6.0,3.0,3.0,6.0,3.0,2.0,4.0,5.0,3.0,6.0,4.0,3.0,5.0,5.0,4.0,6.0,4.0,5.0,3.0,5.0,5.0,6.0,6.0,99.0,6.0,4.0,5.0,3.0,5.0,99.0,6.0,6.0,6.0,6.0,6.0,99.0,4.0,4.0,5.0,4.0,4.0,5.0,2.0,6.0,99.0,Distressed over family business centered around Weddings and prom,4.0,5.0,5.0,3.0,3.0,5.0,4.0,4.0,5.0,4.0,3.0,3.0,5.0,4.0,4.0,3.0,4.0,4.0,4.0,3.0,3.0,4.0,3.0,3.0,4.0,4.0,,6.0,5.0,1.0,5.0,5.0,3.0,The economy.  We may lose our family business but it will take months for some parts of the economy to recover,3.4,5.0,4.333333,4.666667,4.666667,3.333333,3.333333,4.2
102913,378,2020-03-31 21:27:48,ZH-T,61,Female,PhD/Doctorate,College degree,Full time employed,United States,no,California,Married/cohabiting,0.0,No,Isolated,2.0,0.0,Program A,,No,3.0,2.0,3.0,4.0,4.0,,,4.0,2.0,2.0,,2.0,,,,,,,,,,,,,,,,,,,,,,,,,,,,,,,,,,,,,,,,,,,,,,,,,,,,,,,,,,,,,,,,,,,,,,,,,,,,,,,,,,,,,,,,,,,,,,,,2.25,2.0,,,,,,
102922,2388,2020-03-30 21:59:26,ZH-T,40,Female,PhD/Doctorate,Some College or equivalent,Part time employed,United States,no,<U+52A0><U+5DDE>,Married/cohabiting,2.0,No,Life carries on with minor changes,,,Program A,,Yes,4.0,3.0,2.0,3.0,2.0,2.0,2.0,2.0,4.0,2.0,1.0,1.0,1.0,6.0,8.0,4.0,9.0,8.0,9.0,1.0,5.0,3.0,3.0,3.0,6.0,6.0,0.0,5.0,5.0,6.0,2.0,6.0,6.0,5.0,5.0,5.0,5.0,4.0,2.0,3.0,5.0,2.0,2.0,5.0,4.0,3.0,2.0,5.0,4.0,4.0,6.0,6.0,2.0,5.0,99.0,2.0,6.0,6.0,4.0,2.0,2.0,2.0,2.0,2.0,2.0,2.0,5.0,2.0,5.0,2.0,6.0,5.0,,5.0,5.0,5.0,5.0,5.0,2.0,5.0,5.0,4.0,5.0,2.0,5.0,2.0,2.0,2.0,1.0,4.0,1.0,5.0,5.0,2.0,5.0,5.0,5.0,2.0,4.0,,5.0,5.0,5.0,5.0,2.0,2.0,,3.2,1.0,4.0,4.666667,3.333333,4.666667,4.333333,4.6
102933,784,2020-03-31 21:50:02,EN,44,Female,"Some College, short continuing education or equivalent",Some College or equivalent,Full time employed,United States,no,Virginia,Married/cohabiting,2.0,Yes,Isolated,2.0,0.0,,Program C,No,3.0,3.0,5.0,4.0,3.0,3.0,4.0,4.0,3.0,4.0,2.0,3.0,2.0,5.0,9.0,5.0,5.0,4.0,2.0,2.0,1.0,6.0,6.0,6.0,6.0,6.0,0.0,6.0,5.0,6.0,1.0,4.0,3.0,4.0,2.0,3.0,2.0,1.0,6.0,5.0,4.0,4.0,3.0,3.0,6.0,6.0,1.0,6.0,5.0,4.0,2.0,5.0,1.0,1.0,1.0,6.0,1.0,6.0,6.0,6.0,6.0,6.0,2.0,2.0,1.0,3.0,3.0,2.0,6.0,2.0,6.0,1.0,,6.0,5.0,5.0,6.0,6.0,4.0,6.0,6.0,4.0,6.0,4.0,2.0,4.0,1.0,2.0,5.0,6.0,6.0,6.0,3.0,4.0,4.0,4.0,6.0,1.0,4.0,,6.0,6.0,6.0,3.0,4.0,1.0,,3.0,2.333333,3.333333,1.333333,4.333333,4.333333,6.0,5.4
102955,1508,2020-03-31 21:39:41,LT,23,Female,"College degree, bachelor, master",College degree,Part time employed,United States,yes,Niujorkas,Single,0.0,No,Life carries on with minor changes,2.0,0.0,Program B,,No,3.0,3.0,5.0,3.0,3.0,3.0,3.0,4.0,3.0,2.0,3.0,3.0,3.0,7.0,9.0,6.0,9.0,9.0,8.0,10.0,6.0,6.0,6.0,6.0,6.0,6.0,3.0,5.0,5.0,6.0,4.0,5.0,5.0,3.0,5.0,5.0,4.0,3.0,5.0,5.0,6.0,6.0,1.0,5.0,5.0,6.0,4.0,4.0,5.0,4.0,99.0,6.0,2.0,5.0,1.0,6.0,99.0,6.0,4.0,6.0,5.0,6.0,1.0,4.0,2.0,5.0,5.0,5.0,5.0,3.0,6.0,6.0,,6.0,6.0,5.0,6.0,5.0,6.0,6.0,6.0,6.0,6.0,4.0,6.0,6.0,1.0,6.0,5.0,1.0,1.0,5.0,6.0,4.0,5.0,6.0,6.0,5.0,6.0,,6.0,6.0,4.0,6.0,6.0,1.0,,3.0,3.0,3.333333,3.0,5.666667,5.333333,4.333333,5.8
102971,603,2020-03-30 21:22:14,ZH-T,31,Female,PhD/Doctorate,Some College or equivalent,Not employed,United States,yes,Georgia State,Married/cohabiting,0.0,No,Isolated,1.0,0.0,Program B,,No,3.0,2.0,4.0,3.0,3.0,3.0,4.0,2.0,3.0,3.0,1.0,2.0,3.0,7.0,8.0,7.0,5.0,6.0,8.0,1.0,7.0,4.0,5.0,5.0,5.0,6.0,5.0,5.0,5.0,6.0,3.0,4.0,6.0,6.0,4.0,5.0,5.0,5.0,4.0,5.0,5.0,5.0,2.0,6.0,5.0,6.0,4.0,6.0,4.0,5.0,99.0,5.0,4.0,4.0,99.0,3.0,99.0,5.0,4.0,4.0,3.0,5.0,4.0,2.0,2.0,3.0,4.0,4.0,6.0,3.0,4.0,4.0,,6.0,6.0,6.0,6.0,6.0,6.0,5.0,6.0,6.0,6.0,6.0,5.0,5.0,5.0,5.0,4.0,2.0,2.0,4.0,4.0,5.0,5.0,4.0,6.0,4.0,5.0,,5.0,5.0,6.0,3.0,4.0,6.0,,3.0,2.0,4.0,4.333333,5.0,5.333333,5.0,5.9
103031,2031,2020-03-30 21:39:32,SME,36,Male,"College degree, bachelor, master",Up to 12 years of school,Full time employed,United States,yes,Alabama,Single,1.0,Yes,Isolated,0.0,0.0,Program A,,No,5.0,4.0,5.0,3.0,3.0,3.0,4.0,1.0,5.0,4.0,3.0,2.0,3.0,5.0,5.0,1.0,1.0,3.0,5.0,7.0,1.0,4.0,6.0,6.0,5.0,6.0,1.0,6.0,6.0,6.0,1.0,2.0,6.0,6.0,6.0,5.0,4.0,3.0,6.0,4.0,5.0,5.0,6.0,2.0,5.0,5.0,4.0,4.0,6.0,5.0,1.0,5.0,6.0,3.0,1.0,1.0,1.0,6.0,5.0,6.0,6.0,6.0,1.0,1.0,4.0,1.0,4.0,6.0,5.0,6.0,6.0,6.0,,5.0,6.0,6.0,6.0,6.0,6.0,6.0,6.0,6.0,6.0,5.0,5.0,6.0,1.0,3.0,2.0,1.0,1.0,5.0,4.0,3.0,5.0,5.0,2.0,1.0,5.0,,6.0,6.0,6.0,3.0,6.0,2.0,,3.9,2.666667,4.666667,2.666667,4.666667,2.666667,4.0,5.9
103046,866,2020-03-30 21:17:57,EN,27,Female,"College degree, bachelor, master",College degree,Full time employed,United States,no,,Single,0.0,Yes,Isolated,0.0,0.0,,Program C,No,4.0,3.0,5.0,2.0,2.0,3.0,3.0,2.0,3.0,2.0,5.0,5.0,5.0,5.0,8.0,2.0,3.0,4.0,7.0,7.0,3.0,2.0,5.0,6.0,4.0,6.0,4.0,3.0,6.0,5.0,6.0,4.0,3.0,4.0,5.0,5.0,6.0,6.0,3.0,5.0,6.0,6.0,5.0,2.0,5.0,5.0,4.0,5.0,2.0,6.0,99.0,3.0,4.0,6.0,1.0,99.0,99.0,5.0,4.0,5.0,5.0,5.0,3.0,6.0,1.0,6.0,6.0,1.0,1.0,4.0,6.0,99.0,I'm afraid of social distancing negatively affecting my own mental health,6.0,3.0,1.0,3.0,4.0,5.0,4.0,4.0,5.0,5.0,4.0,5.0,4.0,5.0,4.0,3.0,4.0,4.0,2.0,4.0,3.0,2.0,2.0,4.0,1.0,4.0,,5.0,5.0,3.0,3.0,4.0,5.0,"I was already very isolated and unhappy with my job and living situation - I'm stable and safe, but COVID-19 has put all my plans to improve things on hold for an unknown amount of time",3.5,5.0,3.666667,5.333333,5.666667,3.0,4.333333,4.0
103074,591,2020-03-30 21:08:36,EN,30,Female,"College degree, bachelor, master",PhD/Doctorate,Full time employed,United States,no,California,Married/cohabiting,0.0,Yes,Life carries on with minor changes,2.0,0.0,,Program C,No,2.0,2.0,3.0,4.0,4.0,2.0,3.0,4.0,3.0,2.0,2.0,2.0,3.0,3.0,7.0,3.0,3.0,9.0,3.0,8.0,3.0,5.0,5.0,5.0,4.0,4.0,3.0,3.0,3.0,3.0,2.0,2.0,2.0,3.0,1.0,6.0,5.0,6.0,2.0,4.0,5.0,3.0,2.0,4.0,5.0,4.0,2.0,5.0,2.0,5.0,99.0,3.0,4.0,3.0,99.0,2.0,99.0,5.0,4.0,5.0,4.0,3.0,4.0,3.0,4.0,4.0,5.0,5.0,4.0,5.0,6.0,2.0,,5.0,4.0,5.0,5.0,5.0,5.0,5.0,6.0,5.0,5.0,3.0,2.0,5.0,1.0,4.0,5.0,1.0,1.0,6.0,4.0,4.0,4.0,5.0,5.0,1.0,5.0,,5.0,5.0,4.0,3.0,5.0,1.0,,2.3,2.333333,1.666667,5.333333,4.0,4.666667,4.666667,5.0
103100,981,2020-03-30 21:12:31,EN,71,Male,"College degree, bachelor, master",Up to 12 years of school,Retired,United States,no,Michigan,Married/cohabiting,,Yes,Life carries on with minor changes,,,,Program C,No,2.0,2.0,3.0,5.0,4.0,1.0,4.0,4.0,1.0,1.0,2.0,3.0,4.0,9.0,9.0,5.0,5.0,7.0,2.0,8.0,2.0,5.0,6.0,5.0,5.0,5.0,2.0,5.0,5.0,5.0,1.0,5.0,4.0,2.0,1.0,5.0,3.0,2.0,5.0,3.0,5.0,4.0,3.0,4.0,4.0,4.0,4.0,5.0,5.0,99.0,99.0,99.0,3.0,5.0,99.0,4.0,99.0,5.0,3.0,5.0,5.0,5.0,99.0,3.0,3.0,3.0,3.0,5.0,3.0,2.0,4.0,99.0,,4.0,4.0,3.0,4.0,4.0,4.0,4.0,6.0,3.0,4.0,2.0,1.0,4.0,2.0,1.0,5.0,1.0,1.0,4.0,2.0,2.0,3.0,1.0,2.0,1.0,2.0,,1.0,2.0,3.0,3.0,4.0,4.0,,1.7,3.0,1.666667,2.333333,4.0,4.0,4.0,4.0
103111,881,2020-03-30 21:09:38,EN,43,Male,"College degree, bachelor, master",Up to 12 years of school,Self-employed,United States,no,Rhode Island,Married/cohabiting,0.0,Yes,Isolated,0.0,0.0,,Program D,No,5.0,5.0,5.0,3.0,2.0,4.0,2.0,2.0,5.0,4.0,4.0,5.0,4.0,5.0,8.0,4.0,9.0,7.0,8.0,4.0,7.0,2.0,4.0,2.0,2.0,2.0,8.0,6.0,4.0,5.0,6.0,4.0,2.0,4.0,5.0,4.0,2.0,2.0,5.0,2.0,4.0,1.0,2.0,6.0,5.0,3.0,4.0,4.0,5.0,5.0,99.0,2.0,2.0,2.0,2.0,2.0,99.0,6.0,2.0,2.0,2.0,2.0,5.0,1.0,1.0,6.0,2.0,2.0,2.0,2.0,6.0,4.0,,4.0,3.0,5.0,5.0,6.0,5.0,5.0,5.0,3.0,5.0,3.0,3.0,3.0,2.0,4.0,2.0,1.0,2.0,2.0,3.0,4.0,3.0,5.0,2.0,5.0,3.0,,5.0,5.0,2.0,6.0,3.0,1.0,Media coverage is a massive stress inducer.  Designed to demonstrate the worst.,4.3,4.333333,4.0,2.0,2.333333,5.333333,3.333333,4.6
103116,1143,2020-03-30 21:13:13,SME,37,Female,"College degree, bachelor, master",College degree,Self-employed,United States,yes,texas,Married/cohabiting,0.0,Yes,Life carries on with minor changes,1.0,0.0,Program B,,Yes,4.0,3.0,4.0,3.0,3.0,3.0,3.0,1.0,4.0,3.0,3.0,4.0,3.0,1.0,6.0,3.0,0.0,0.0,4.0,4.0,2.0,5.0,6.0,6.0,6.0,6.0,0.0,5.0,6.0,6.0,1.0,1.0,3.0,4.0,4.0,4.0,4.0,4.0,6.0,5.0,6.0,6.0,3.0,2.0,6.0,4.0,2.0,2.0,5.0,4.0,99.0,5.0,4.0,4.0,1.0,4.0,99.0,6.0,2.0,6.0,5.0,6.0,4.0,1.0,4.0,4.0,2.0,5.0,5.0,4.0,1.0,4.0,,6.0,4.0,4.0,5.0,4.0,4.0,4.0,6.0,4.0,4.0,4.0,2.0,5.0,1.0,5.0,4.0,4.0,5.0,4.0,4.0,5.0,4.0,5.0,5.0,1.0,5.0,,5.0,5.0,5.0,5.0,5.0,5.0,,3.5,3.333333,3.666667,3.0,5.666667,4.0,3.666667,4.5
103125,1166,2020-03-30 21:11:10,EN,33,Female,"Some College, short continuing education or equivalent",Some College or equivalent,Not employed,United States,no,Michigan,Married/cohabiting,3.0,Not sure,Isolated,1.0,3.0,Program B,,No,2.0,2.0,5.0,4.0,2.0,4.0,4.0,3.0,1.0,2.0,1.0,2.0,3.0,2.0,8.0,1.0,8.0,8.0,10.0,10.0,9.0,5.0,5.0,5.0,5.0,5.0,4.0,5.0,5.0,6.0,2.0,5.0,3.0,2.0,2.0,4.0,6.0,6.0,3.0,5.0,6.0,5.0,2.0,5.0,6.0,3.0,1.0,5.0,6.0,99.0,5.0,2.0,6.0,3.0,2.0,2.0,4.0,3.0,4.0,6.0,6.0,5.0,2.0,2.0,5.0,4.0,3.0,2.0,5.0,2.0,5.0,2.0,,6.0,5.0,6.0,5.0,6.0,5.0,6.0,6.0,5.0,5.0,4.0,1.0,5.0,1.0,4.0,4.0,4.0,4.0,5.0,3.0,3.0,6.0,1.0,5.0,5.0,4.0,,4.0,5.0,3.0,3.0,3.0,3.0,,2.7,2.0,2.333333,5.333333,5.333333,5.333333,4.666667,5.5
103126,844,2020-03-30 21:05:43,EN,27,Female,"College degree, bachelor, master",College degree,Full time employed,United States,no,Pennsylvania,Single,0.0,Yes,Life carries on with minor changes,2.0,0.0,,Program D,No,4.0,4.0,5.0,3.0,2.0,3.0,3.0,3.0,4.0,4.0,3.0,3.0,4.0,2.0,4.0,4.0,5.0,7.0,3.0,4.0,1.0,6.0,6.0,6.0,6.0,6.0,3.0,4.0,5.0,5.0,3.0,2.0,3.0,5.0,5.0,3.0,4.0,2.0,5.0,6.0,5.0,6.0,3.0,4.0,5.0,5.0,2.0,5.0,5.0,3.0,99.0,6.0,6.0,4.0,5.0,3.0,99.0,4.0,5.0,6.0,5.0,6.0,5.0,3.0,3.0,4.0,3.0,5.0,5.0,4.0,4.0,99.0,,5.0,4.0,4.0,6.0,6.0,6.0,4.0,6.0,5.0,6.0,3.0,6.0,5.0,2.0,4.0,2.0,1.0,1.0,4.0,3.0,3.0,3.0,4.0,4.0,4.0,3.0,,5.0,5.0,5.0,2.0,5.0,2.0,,3.7,3.333333,4.666667,2.666667,5.666667,4.333333,5.0,5.2
103127,1277,2020-03-31 21:16:00,EN,19,Other/would rather not say,Up to 12 years of school,Up to 12 years of school,Self-employed,United States,yes,Virginia,Single,0.0,Yes,Life carries on with minor changes,4.0,0.0,,Program C,Yes,3.0,5.0,5.0,3.0,2.0,5.0,2.0,2.0,5.0,4.0,2.0,4.0,3.0,5.0,8.0,0.0,0.0,0.0,0.0,4.0,0.0,5.0,6.0,6.0,6.0,6.0,0.0,5.0,6.0,6.0,4.0,2.0,4.0,6.0,5.0,3.0,5.0,2.0,4.0,6.0,4.0,3.0,4.0,5.0,5.0,3.0,4.0,4.0,1.0,4.0,99.0,5.0,1.0,6.0,99.0,5.0,99.0,5.0,6.0,6.0,6.0,6.0,99.0,3.0,6.0,6.0,6.0,5.0,4.0,2.0,5.0,1.0,,6.0,4.0,5.0,5.0,5.0,4.0,6.0,6.0,4.0,6.0,1.0,6.0,5.0,2.0,1.0,2.0,1.0,1.0,4.0,6.0,4.0,5.0,1.0,4.0,1.0,1.0,,5.0,5.0,6.0,6.0,5.0,1.0,"I worry about my friends and communities access to healthcare, most of them don't have insurance. I also have many high-risk loved ones and I'm devastated to know many of them will not be able to get ventilators if needed because of eugenics being implemented into triages from healthcare system strain. Ive been worried about the possibility of not being able to get access to my medicine i need to live",4.2,3.0,5.0,3.333333,4.333333,4.333333,3.333333,5.1
103133,663,2020-03-30 21:00:53,ZH-T,32,Female,PhD/Doctorate,College degree,Not employed,United States,yes,Michigan,Married/cohabiting,1.0,No,Isolated,1.0,1.0,,Program C,No,2.0,2.0,2.0,4.0,3.0,1.0,4.0,4.0,2.0,1.0,1.0,1.0,2.0,6.0,7.0,4.0,4.0,4.0,6.0,1.0,3.0,3.0,3.0,3.0,5.0,5.0,2.0,6.0,5.0,6.0,2.0,5.0,5.0,4.0,4.0,5.0,5.0,6.0,2.0,4.0,5.0,4.0,3.0,5.0,5.0,5.0,5.0,5.0,4.0,99.0,4.0,6.0,5.0,4.0,1.0,2.0,3.0,5.0,6.0,4.0,4.0,4.0,99.0,2.0,4.0,3.0,4.0,4.0,5.0,4.0,5.0,4.0,,5.0,5.0,4.0,5.0,5.0,5.0,5.0,5.0,4.0,5.0,4.0,5.0,6.0,2.0,4.0,4.0,4.0,4.0,6.0,5.0,4.0,5.0,4.0,5.0,4.0,5.0,,6.0,5.0,4.0,3.0,5.0,5.0,,1.9,1.333333,3.333333,5.333333,4.333333,4.666667,4.0,4.8
103137,1280,2020-03-30 21:10:55,EN,39,Female,"College degree, bachelor, master",College degree,Full time employed,United States,no,Virginia,Married/cohabiting,2.0,Yes,Isolated,1.0,2.0,Program A,,No,3.0,2.0,3.0,4.0,3.0,2.0,4.0,3.0,3.0,2.0,2.0,1.0,3.0,6.0,9.0,5.0,8.0,9.0,9.0,9.0,6.0,4.0,5.0,4.0,5.0,5.0,3.0,5.0,6.0,6.0,2.0,4.0,5.0,4.0,3.0,3.0,3.0,3.0,4.0,4.0,4.0,4.0,3.0,4.0,4.0,4.0,3.0,5.0,1.0,4.0,4.0,1.0,4.0,4.0,4.0,3.0,4.0,4.0,3.0,4.0,4.0,4.0,3.0,3.0,4.0,3.0,3.0,2.0,4.0,1.0,4.0,3.0,I am concerned about socializing with most families but live on a private drive with others that are taking the quarentine very seriously. I do not worry nearly as much about the select few that I trust in their very careful and methodical measures.,6.0,5.0,5.0,1.0,6.0,5.0,6.0,5.0,4.0,1.0,4.0,5.0,5.0,2.0,3.0,4.0,1.0,2.0,4.0,4.0,2.0,5.0,2.0,4.0,5.0,4.0,Is caring for family a hobby?,4.0,5.0,5.0,4.0,2.0,5.0,"Though I feel safe,  financially stable,  and loved by my family,  I am more reactive with my family during this time.",2.5,2.0,3.666667,3.0,4.0,4.0,4.333333,4.4
103144,319,2020-03-31 21:01:25,AFR,37,Female,PhD/Doctorate,College degree,Full time employed,United States,,,Married/cohabiting,2.0,No,Life carries on with minor changes,1.0,2.0,,,,1.0,1.0,1.0,5.0,5.0,1.0,4.0,5.0,2.0,1.0,1.0,1.0,2.0,,,,,,,,,,,,,,,,,,,,,,,,,,,,,,,,,,,,,,,,,,,,,,,,,,,,,,,,,,,,,,,,,,,,,,,,,,,,,,,,,,,,,,,,,,,,,,,1.2,1.333333,,,,,,
103150,524,2020-03-30 20:56:42,EN,43,Female,"College degree, bachelor, master",Some College or equivalent,Full time employed,United States,no,Colorado,Married/cohabiting,3.0,Yes,Isolated,2.0,1.0,,Program C,No,2.0,2.0,3.0,3.0,3.0,4.0,4.0,4.0,3.0,3.0,1.0,1.0,5.0,6.0,8.0,4.0,4.0,5.0,5.0,6.0,1.0,6.0,6.0,6.0,6.0,6.0,0.0,6.0,6.0,6.0,1.0,2.0,6.0,5.0,1.0,6.0,6.0,6.0,2.0,6.0,5.0,6.0,4.0,6.0,4.0,5.0,1.0,5.0,6.0,5.0,1.0,6.0,6.0,2.0,1.0,4.0,2.0,6.0,4.0,6.0,6.0,6.0,2.0,2.0,2.0,2.0,2.0,1.0,5.0,1.0,6.0,1.0,,6.0,6.0,6.0,6.0,6.0,6.0,6.0,6.0,6.0,6.0,2.0,1.0,6.0,1.0,6.0,4.0,1.0,1.0,3.0,6.0,5.0,2.0,5.0,2.0,5.0,4.0,,4.0,5.0,4.0,2.0,6.0,4.0,,2.7,2.333333,2.333333,5.666667,5.666667,4.333333,5.333333,6.0
103178,2828,2020-03-30 21:29:10,EN,35,Female,Up to 12 years of school,Up to 12 years of school,Not employed,United States,no,Tennessee,Married/cohabiting,0.0,Yes,Life carries on with minor changes,2.0,0.0,Program A,,Not sure,3.0,3.0,4.0,3.0,3.0,3.0,2.0,4.0,3.0,2.0,3.0,4.0,3.0,5.0,8.0,4.0,3.0,6.0,5.0,5.0,2.0,4.0,5.0,5.0,5.0,5.0,3.0,6.0,6.0,5.0,1.0,2.0,2.0,6.0,4.0,2.0,6.0,3.0,4.0,4.0,6.0,4.0,3.0,4.0,5.0,5.0,4.0,5.0,3.0,99.0,99.0,5.0,5.0,4.0,2.0,3.0,99.0,5.0,5.0,5.0,4.0,5.0,99.0,2.0,6.0,4.0,3.0,3.0,3.0,2.0,6.0,3.0,,5.0,5.0,4.0,5.0,5.0,3.0,5.0,5.0,4.0,5.0,4.0,5.0,5.0,3.0,3.0,3.0,4.0,4.0,5.0,4.0,4.0,4.0,3.0,5.0,4.0,4.0,,5.0,4.0,3.0,2.0,2.0,3.0,,3.0,3.333333,5.0,4.0,4.666667,4.333333,4.333333,4.6
103183,541,2020-03-31 20:49:31,EN,52,Female,"Some College, short continuing education or equivalent",Up to 9 years of school,Full time employed,United States,yes,Virginia,Married/cohabiting,2.0,Yes,Life carries on with minor changes,1.0,0.0,,Program C,No,2.0,3.0,3.0,5.0,3.0,1.0,5.0,3.0,1.0,2.0,2.0,1.0,3.0,6.0,9.0,6.0,8.0,4.0,8.0,7.0,7.0,5.0,6.0,5.0,5.0,5.0,6.0,5.0,5.0,4.0,2.0,3.0,4.0,2.0,4.0,6.0,5.0,3.0,3.0,5.0,5.0,5.0,1.0,4.0,5.0,6.0,1.0,5.0,,,,,,,,,,,,,,,,,,,,,,,,,,,,,,,,,,,,,,,,,,,,,,,,,,,,,,,,,,,,2.0,2.0,2.333333,4.0,5.0,5.0,5.666667,
103192,827,2020-03-30 20:52:54,SME,34,Female,PhD/Doctorate,PhD/Doctorate,Student,United States,yes,Texas,Single,0.0,No,Isolated,4.0,0.0,,Program D,No,3.0,4.0,5.0,2.0,3.0,2.0,4.0,3.0,5.0,3.0,3.0,1.0,1.0,6.0,6.0,7.0,1.0,5.0,3.0,8.0,9.0,2.0,5.0,4.0,6.0,3.0,5.0,5.0,4.0,4.0,2.0,4.0,5.0,5.0,4.0,5.0,5.0,5.0,2.0,5.0,5.0,5.0,2.0,3.0,5.0,6.0,4.0,6.0,4.0,2.0,2.0,2.0,3.0,4.0,2.0,3.0,1.0,5.0,5.0,5.0,99.0,2.0,2.0,2.0,2.0,5.0,2.0,2.0,3.0,2.0,2.0,2.0,,6.0,6.0,6.0,6.0,6.0,6.0,6.0,6.0,6.0,6.0,5.0,2.0,4.0,1.0,5.0,4.0,1.0,1.0,2.0,2.0,5.0,5.0,5.0,2.0,1.0,5.0,,5.0,5.0,3.0,5.0,5.0,2.0,,3.4,1.666667,3.666667,5.0,5.0,4.333333,5.0,6.0
103194,1028,2020-03-30 20:55:51,EN,33,Female,"College degree, bachelor, master",Some College or equivalent,Student,United States,no,Virginia,Married/cohabiting,5.0,Yes,Isolated,1.0,5.0,,Program C,No,3.0,2.0,4.0,3.0,4.0,3.0,3.0,4.0,4.0,2.0,3.0,2.0,3.0,1.0,1.0,1.0,2.0,2.0,0.0,2.0,2.0,6.0,5.0,4.0,5.0,4.0,4.0,6.0,6.0,5.0,3.0,1.0,3.0,6.0,5.0,2.0,6.0,4.0,4.0,6.0,6.0,6.0,1.0,5.0,6.0,6.0,4.0,6.0,1.0,99.0,1.0,1.0,4.0,2.0,1.0,99.0,2.0,6.0,2.0,6.0,99.0,4.0,1.0,2.0,2.0,2.0,2.0,2.0,1.0,1.0,1.0,1.0,"the major stress is living with someone who is active duty military who is not wearing any mask while on the job and interacting with others while I am high risk.  Furthermore, as active duty they cannot call out or stay home.  Operations are still going on and he will be on a ship now for a week with over 300 sailors.  Then he comes home and who knows what we will be exposed to.  If he was just deployed there would be no exposure to the virus however how can you or your kids stay away from your husband who isnt protected.",5.0,5.0,3.0,3.0,6.0,3.0,4.0,5.0,6.0,5.0,6.0,1.0,4.0,1.0,4.0,2.0,1.0,1.0,2.0,5.0,5.0,6.0,6.0,6.0,1.0,3.0,,5.0,5.0,6.0,1.0,2.0,1.0,,2.8,2.666667,5.333333,4.333333,6.0,5.666667,5.0,4.5
103196,830,2020-03-30 20:52:20,EN,35,Female,PhD/Doctorate,Some College or equivalent,Full time employed,United States,no,California,Married/cohabiting,2.0,Yes,Isolated,1.0,2.0,Program A,,Yes,4.0,4.0,4.0,4.0,3.0,2.0,3.0,5.0,4.0,1.0,2.0,2.0,3.0,4.0,7.0,7.0,6.0,8.0,5.0,8.0,7.0,5.0,6.0,5.0,6.0,6.0,4.0,6.0,5.0,6.0,1.0,3.0,4.0,5.0,5.0,2.0,2.0,1.0,5.0,4.0,4.0,3.0,3.0,3.0,4.0,5.0,4.0,6.0,3.0,6.0,6.0,2.0,4.0,2.0,1.0,6.0,5.0,6.0,4.0,5.0,5.0,5.0,1.0,1.0,3.0,2.0,2.0,6.0,4.0,1.0,5.0,4.0,,5.0,4.0,6.0,5.0,6.0,6.0,6.0,5.0,5.0,4.0,6.0,2.0,2.0,1.0,6.0,5.0,4.0,1.0,5.0,1.0,5.0,6.0,3.0,2.0,1.0,4.0,,5.0,6.0,5.0,3.0,5.0,1.0,I share custody of 2 children with an ER professional. We have decided that they will not see that parent for now. This is the longest they have been away from a parent in their lives and there isn't an end in sight.,2.8,2.333333,5.0,1.666667,3.666667,3.666667,4.666667,5.2
103197,1086,2020-03-30 20:56:34,ZH-T,64,Male,PhD/Doctorate,Up to 12 years of school,Retired,United States,yes,California,Married/cohabiting,0.0,Yes,Life carries on with minor changes,,,,,,2.0,2.0,1.0,4.0,2.0,1.0,4.0,3.0,2.0,2.0,2.0,2.0,1.0,7.0,9.0,5.0,7.0,7.0,5.0,4.0,6.0,3.0,4.0,4.0,4.0,4.0,3.0,5.0,5.0,5.0,2.0,4.0,4.0,4.0,3.0,4.0,2.0,3.0,4.0,4.0,3.0,3.0,2.0,4.0,4.0,4.0,2.0,4.0,4.0,3.0,99.0,4.0,4.0,3.0,4.0,3.0,99.0,4.0,4.0,4.0,4.0,4.0,99.0,99.0,2.0,2.0,2.0,4.0,4.0,4.0,4.0,4.0,,4.0,3.0,3.0,4.0,4.0,4.0,3.0,4.0,3.0,4.0,4.0,4.0,4.0,3.0,4.0,3.0,3.0,2.0,4.0,4.0,4.0,5.0,4.0,4.0,4.0,4.0,,4.0,4.0,5.0,4.0,3.0,4.0,,2.1,1.666667,3.333333,2.666667,3.333333,4.333333,4.333333,3.6
103215,608,2020-03-30 20:45:49,EN,30,Female,"College degree, bachelor, master",College degree,Full time employed,United States,no,Delaware,Single,0.0,Yes,Isolated,2.0,0.0,Program A,,No,3.0,3.0,5.0,4.0,3.0,3.0,4.0,3.0,3.0,2.0,4.0,3.0,4.0,8.0,10.0,2.0,4.0,8.0,7.0,8.0,3.0,4.0,6.0,5.0,5.0,6.0,2.0,6.0,4.0,4.0,4.0,3.0,3.0,3.0,3.0,6.0,3.0,3.0,4.0,4.0,5.0,4.0,1.0,6.0,6.0,5.0,3.0,5.0,1.0,6.0,99.0,1.0,5.0,4.0,4.0,4.0,99.0,4.0,4.0,6.0,6.0,6.0,99.0,4.0,4.0,4.0,4.0,6.0,6.0,2.0,6.0,2.0,Im a nurse and Im concerned about having enough PPE to protect myself and my patients,6.0,5.0,5.0,5.0,5.0,5.0,5.0,5.0,5.0,5.0,3.0,6.0,4.0,6.0,5.0,4.0,1.0,1.0,4.0,6.0,5.0,4.0,6.0,4.0,6.0,1.0,,5.0,5.0,5.0,5.0,5.0,3.0,Worried about PPE!,2.9,3.666667,2.333333,3.0,4.333333,6.0,4.666667,5.1
103218,2879,2020-03-30 21:23:22,ZH-T,61,Female,"College degree, bachelor, master",Up to 9 years of school,Full time employed,United States,no,California,Single,1.0,No,Isolated,1.0,0.0,,Program C,Not sure,4.0,2.0,4.0,5.0,4.0,2.0,3.0,1.0,1.0,2.0,1.0,1.0,1.0,5.0,9.0,3.0,6.0,7.0,3.0,4.0,2.0,6.0,6.0,6.0,6.0,6.0,0.0,5.0,5.0,5.0,2.0,5.0,5.0,4.0,5.0,2.0,5.0,3.0,5.0,4.0,5.0,5.0,4.0,5.0,3.0,5.0,3.0,4.0,5.0,2.0,99.0,6.0,4.0,1.0,2.0,1.0,99.0,6.0,5.0,6.0,6.0,6.0,2.0,2.0,2.0,1.0,1.0,1.0,6.0,4.0,5.0,,,5.0,2.0,2.0,5.0,5.0,6.0,5.0,6.0,5.0,5.0,,,,,,,,,,,,,,,,,,,,,,,,,2.6,1.0,4.666667,3.333333,4.666667,3.666667,4.333333,4.6
103219,817,2020-03-30 20:48:58,EN,39,Female,"College degree, bachelor, master",Up to 12 years of school,Full time employed,United States,no,Iowa,Married/cohabiting,3.0,Not sure,Isolated,3.0,0.0,,Program C,No,3.0,3.0,3.0,4.0,3.0,2.0,3.0,3.0,3.0,3.0,1.0,1.0,4.0,5.0,7.0,3.0,7.0,5.0,7.0,7.0,3.0,5.0,5.0,5.0,6.0,6.0,1.0,4.0,5.0,3.0,1.0,4.0,2.0,3.0,3.0,4.0,3.0,3.0,3.0,5.0,2.0,4.0,4.0,4.0,5.0,5.0,4.0,5.0,2.0,5.0,3.0,2.0,4.0,2.0,2.0,4.0,99.0,5.0,3.0,5.0,5.0,5.0,99.0,1.0,4.0,2.0,3.0,6.0,2.0,2.0,6.0,99.0,,5.0,5.0,5.0,5.0,5.0,5.0,6.0,5.0,5.0,5.0,5.0,1.0,5.0,5.0,4.0,5.0,1.0,1.0,4.0,4.0,2.0,5.0,2.0,4.0,3.0,4.0,,5.0,1.0,1.0,5.0,5.0,1.0,,2.8,2.0,3.0,3.333333,3.666667,4.0,4.333333,5.1
103225,682,2020-03-30 20:45:27,EN,25,Male,"College degree, bachelor, master",Some College or equivalent,Full time employed,United States,no,Pennsylvania,Married/cohabiting,0.0,Yes,Life carries on with minor changes,4.0,0.0,,Program C,No,2.0,2.0,3.0,5.0,5.0,2.0,3.0,5.0,2.0,1.0,1.0,1.0,2.0,5.0,8.0,5.0,6.0,5.0,5.0,1.0,6.0,5.0,6.0,3.0,6.0,5.0,6.0,6.0,4.0,4.0,1.0,2.0,4.0,6.0,2.0,6.0,3.0,2.0,6.0,6.0,6.0,6.0,6.0,2.0,4.0,5.0,5.0,5.0,1.0,1.0,1.0,1.0,6.0,1.0,99.0,5.0,99.0,5.0,5.0,5.0,5.0,2.0,1.0,1.0,3.0,1.0,1.0,1.0,4.0,1.0,5.0,2.0,,6.0,6.0,2.0,6.0,6.0,5.0,6.0,6.0,6.0,6.0,4.0,5.0,5.0,2.0,5.0,2.0,6.0,6.0,6.0,4.0,4.0,4.0,4.0,6.0,2.0,4.0,,4.0,5.0,3.0,2.0,5.0,4.0,,1.8,1.333333,3.0,2.0,6.0,2.333333,4.0,5.5
103227,1049,2020-03-30 20:51:01,EN,25,Male,"College degree, bachelor, master",College degree,Full time employed,United States,yes,New York,Single,0.0,Not sure,Isolated,3.0,0.0,,Program D,No,4.0,5.0,4.0,5.0,3.0,3.0,3.0,3.0,3.0,3.0,1.0,2.0,3.0,7.0,8.0,5.0,7.0,7.0,5.0,6.0,3.0,5.0,6.0,5.0,5.0,5.0,3.0,6.0,5.0,6.0,5.0,4.0,3.0,2.0,4.0,6.0,3.0,4.0,6.0,6.0,5.0,6.0,3.0,6.0,4.0,3.0,4.0,5.0,2.0,2.0,99.0,4.0,2.0,2.0,4.0,5.0,99.0,4.0,5.0,5.0,5.0,4.0,2.0,3.0,99.0,1.0,2.0,2.0,3.0,2.0,5.0,4.0,,6.0,5.0,5.0,5.0,6.0,5.0,5.0,6.0,6.0,5.0,3.0,3.0,5.0,4.0,5.0,4.0,5.0,5.0,3.0,4.0,3.0,3.0,4.0,3.0,2.0,4.0,,2.0,2.0,1.0,3.0,2.0,1.0,,3.2,2.0,2.333333,2.666667,5.666667,4.666667,3.666667,5.4
103270,1128,2020-03-30 20:45:14,EN,57,Female,"College degree, bachelor, master",Up to 12 years of school,Part time employed,United States,no,Norfolk,Married/cohabiting,2.0,Yes,Isolated,1.0,0.0,Program B,,No,2.0,3.0,2.0,5.0,3.0,2.0,4.0,4.0,2.0,2.0,1.0,1.0,2.0,6.0,7.0,2.0,4.0,4.0,7.0,2.0,5.0,5.0,5.0,5.0,5.0,4.0,5.0,6.0,3.0,5.0,2.0,2.0,5.0,2.0,1.0,6.0,6.0,6.0,1.0,5.0,3.0,2.0,2.0,5.0,5.0,6.0,5.0,6.0,6.0,2.0,5.0,6.0,5.0,6.0,3.0,1.0,99.0,99.0,5.0,6.0,6.0,5.0,3.0,5.0,1.0,2.0,1.0,1.0,1.0,1.0,5.0,3.0,,6.0,5.0,3.0,6.0,6.0,6.0,6.0,6.0,5.0,6.0,5.0,6.0,6.0,3.0,2.0,6.0,1.0,1.0,2.0,3.0,4.0,5.0,2.0,6.0,4.0,5.0,,5.0,6.0,4.0,2.0,4.0,2.0,,2.1,1.333333,1.333333,6.0,3.333333,5.0,4.666667,5.5
103272,104,2020-03-31 20:28:31,EN,55,Female,"College degree, bachelor, master",College degree,Self-employed,United States,no,DENVER,Married/cohabiting,2.0,Yes,Isolated,5.0,0.0,,,,,,,,,,,,,,,,,,,,,,,,,,,,,,,,,,,,,,,,,,,,,,,,,,,,,,,,,,,,,,,,,,,,,,,,,,,,,,,,,,,,,,,,,,,,,,,,,,,,,,,,,,,,,,,,,,,,,,
103290,457,2020-03-31 20:32:14,EN,32,Female,PhD/Doctorate,College degree,Full time employed,United States,no,New York,Single,0.0,No,Life carries on with minor changes,0.0,0.0,Program A,,No,3.0,4.0,4.0,3.0,2.0,4.0,3.0,2.0,3.0,2.0,4.0,4.0,4.0,5.0,8.0,3.0,2.0,6.0,6.0,6.0,2.0,5.0,6.0,5.0,5.0,5.0,0.0,5.0,3.0,4.0,4.0,3.0,5.0,4.0,3.0,5.0,5.0,3.0,4.0,4.0,5.0,3.0,4.0,5.0,5.0,4.0,4.0,4.0,5.0,5.0,99.0,6.0,5.0,6.0,2.0,6.0,99.0,5.0,5.0,5.0,6.0,5.0,5.0,5.0,6.0,6.0,6.0,5.0,4.0,5.0,6.0,5.0,,5.0,4.0,5.0,5.0,5.0,5.0,5.0,4.0,5.0,5.0,2.0,5.0,5.0,3.0,5.0,5.0,1.0,1.0,4.0,4.0,4.0,5.0,5.0,4.0,2.0,2.0,,5.0,5.0,4.0,2.0,4.0,2.0,,3.4,4.0,3.0,3.666667,4.0,4.333333,3.666667,4.8
103304,2865,2020-03-31 21:10:36,EN,28,Female,"College degree, bachelor, master",College degree,Full time employed,United States,no,pennsylvania,Single,0.0,Yes,Isolated,0.0,0.0,Program A,,Yes,4.0,3.0,3.0,3.0,1.0,3.0,3.0,4.0,4.0,3.0,3.0,4.0,4.0,5.0,7.0,3.0,3.0,6.0,5.0,8.0,5.0,6.0,6.0,6.0,6.0,6.0,0.0,6.0,5.0,5.0,2.0,1.0,5.0,6.0,5.0,5.0,4.0,3.0,3.0,5.0,6.0,2.0,5.0,5.0,5.0,4.0,1.0,5.0,3.0,6.0,99.0,1.0,1.0,6.0,2.0,99.0,99.0,6.0,3.0,5.0,5.0,5.0,99.0,6.0,2.0,5.0,6.0,99.0,6.0,1.0,6.0,2.0,,6.0,5.0,5.0,6.0,6.0,4.0,6.0,6.0,4.0,6.0,4.0,6.0,6.0,6.0,6.0,1.0,1.0,1.0,5.0,6.0,5.0,5.0,5.0,6.0,4.0,6.0,,3.0,6.0,6.0,1.0,1.0,1.0,Fear that healthcare workers will not be protected when doing their jobs (I am a healthcare worker).,3.3,3.666667,4.333333,3.666667,4.333333,4.0,5.0,5.4
103305,1037,2020-03-30 20:40:07,ZH-T,30,Male,PhD/Doctorate,Up to 9 years of school,Student,United States,yes,Texas,Married/cohabiting,0.0,No,Life carries on with minor changes,1.0,0.0,Program B,,No,1.0,1.0,3.0,5.0,4.0,1.0,3.0,4.0,1.0,1.0,1.0,1.0,1.0,5.0,7.0,5.0,4.0,3.0,2.0,,1.0,4.0,4.0,4.0,4.0,5.0,5.0,6.0,6.0,6.0,3.0,3.0,4.0,3.0,4.0,4.0,4.0,4.0,2.0,5.0,4.0,5.0,3.0,6.0,4.0,5.0,2.0,5.0,1.0,1.0,1.0,4.0,3.0,4.0,1.0,1.0,1.0,5.0,3.0,4.0,1.0,4.0,4.0,2.0,1.0,1.0,1.0,4.0,5.0,1.0,4.0,4.0,,5.0,6.0,3.0,6.0,6.0,3.0,6.0,6.0,3.0,6.0,5.0,6.0,6.0,3.0,6.0,6.0,1.0,1.0,4.0,6.0,2.0,6.0,6.0,6.0,2.0,5.0,,6.0,4.0,1.0,6.0,1.0,5.0,,1.6,1.0,3.333333,4.333333,4.666667,4.666667,5.0,5.0
103319,644,2020-03-30 20:32:03,EN,31,Female,"College degree, bachelor, master",College degree,Not employed,United States,no,Pennsylvania,Single,0.0,Yes,Isolated,0.0,0.0,,Program D,No,3.0,3.0,4.0,3.0,3.0,3.0,3.0,3.0,5.0,3.0,4.0,3.0,4.0,6.0,9.0,1.0,5.0,4.0,6.0,10.0,1.0,4.0,5.0,4.0,4.0,4.0,1.0,6.0,4.0,5.0,4.0,4.0,4.0,3.0,2.0,5.0,5.0,5.0,2.0,5.0,5.0,5.0,2.0,4.0,5.0,4.0,4.0,5.0,6.0,99.0,99.0,99.0,4.0,5.0,,99.0,99.0,4.0,5.0,5.0,5.0,6.0,99.0,5.0,99.0,6.0,6.0,99.0,5.0,2.0,6.0,5.0,,4.0,4.0,4.0,4.0,4.0,4.0,4.0,4.0,4.0,4.0,1.0,5.0,4.0,4.0,4.0,4.0,1.0,1.0,5.0,4.0,4.0,4.0,4.0,5.0,1.0,4.0,,1.0,4.0,3.0,1.0,4.0,4.0,,3.3,3.666667,2.333333,5.0,5.0,4.666667,4.0,4.0
103332,107,2020-03-31 20:21:10,EN,30,Female,"College degree, bachelor, master",Some College or equivalent,Full time employed,United States,no,Colorado,Single,0.0,Yes,Isolated,1.0,0.0,,,,,,,,,,,,,,,,,,,,,,,,,,,,,,,,,,,,,,,,,,,,,,,,,,,,,,,,,,,,,,,,,,,,,,,,,,,,,,,,,,,,,,,,,,,,,,,,,,,,,,,,,,,,,,,,,,,,,,
103346,991,2020-03-30 20:34:24,ZH-T,32,Female,PhD/Doctorate,Up to 6 years of school,Not employed,United States,yes,texas,Married/cohabiting,0.0,No,Life carries on with minor changes,1.0,0.0,Program A,,No,1.0,1.0,1.0,4.0,4.0,1.0,4.0,4.0,1.0,1.0,1.0,1.0,4.0,4.0,6.0,5.0,4.0,6.0,4.0,0.0,3.0,3.0,3.0,3.0,6.0,6.0,3.0,6.0,6.0,6.0,1.0,4.0,4.0,1.0,2.0,5.0,4.0,5.0,3.0,2.0,5.0,2.0,2.0,4.0,5.0,4.0,1.0,5.0,4.0,2.0,5.0,5.0,3.0,6.0,1.0,2.0,1.0,6.0,4.0,5.0,1.0,5.0,2.0,2.0,3.0,3.0,2.0,1.0,5.0,1.0,5.0,6.0,,6.0,6.0,5.0,6.0,6.0,5.0,6.0,6.0,5.0,6.0,5.0,4.0,5.0,1.0,4.0,5.0,2.0,2.0,3.0,6.0,5.0,5.0,5.0,6.0,2.0,5.0,,3.0,4.0,4.0,2.0,5.0,3.0,,1.4,2.0,1.666667,4.333333,3.0,4.666667,5.0,5.7
103347,12519,2020-03-31 23:47:15,EN,56,Male,PhD/Doctorate,College degree,Full time employed,United States,no,California,Married/cohabiting,1.0,Not sure,Life carries on with minor changes,2.0,0.0,Program B,,No,2.0,3.0,2.0,5.0,3.0,1.0,5.0,4.0,3.0,2.0,2.0,1.0,2.0,6.0,9.0,7.0,8.0,8.0,9.0,3.0,8.0,5.0,5.0,5.0,5.0,5.0,3.0,5.0,6.0,4.0,3.0,4.0,2.0,2.0,2.0,6.0,4.0,4.0,3.0,6.0,5.0,5.0,2.0,5.0,5.0,5.0,2.0,6.0,1.0,1.0,1.0,2.0,4.0,2.0,2.0,1.0,99.0,5.0,4.0,5.0,5.0,4.0,1.0,3.0,4.0,2.0,3.0,2.0,3.0,2.0,4.0,6.0,,4.0,4.0,4.0,5.0,5.0,5.0,5.0,5.0,5.0,5.0,4.0,4.0,5.0,4.0,4.0,3.0,1.0,1.0,4.0,5.0,4.0,4.0,4.0,6.0,1.0,3.0,,5.0,5.0,5.0,4.0,4.0,5.0,,2.0,1.666667,1.666667,4.0,5.333333,5.0,5.333333,4.7
103390,783,2020-03-30 20:21:09,SME,33,Male,"Some College, short continuing education or equivalent",College degree,Not employed,United States,yes,,Single,0.0,No,Isolated,1.0,0.0,,Program D,No,2.0,2.0,3.0,4.0,4.0,2.0,4.0,3.0,2.0,2.0,3.0,2.0,3.0,7.0,7.0,3.0,2.0,6.0,6.0,6.0,5.0,5.0,5.0,5.0,5.0,5.0,2.0,5.0,5.0,5.0,5.0,5.0,4.0,5.0,5.0,4.0,4.0,4.0,4.0,5.0,6.0,6.0,4.0,3.0,5.0,4.0,6.0,3.0,6.0,3.0,99.0,6.0,4.0,5.0,99.0,3.0,99.0,6.0,99.0,3.0,3.0,6.0,1.0,4.0,4.0,6.0,6.0,6.0,4.0,2.0,4.0,6.0,,6.0,5.0,5.0,5.0,5.0,5.0,6.0,2.0,5.0,6.0,4.0,6.0,6.0,1.0,6.0,2.0,6.0,6.0,6.0,5.0,4.0,4.0,3.0,6.0,1.0,3.0,,3.0,4.0,5.0,4.0,5.0,3.0,Desempleo,2.2,2.666667,4.333333,3.666667,5.666667,3.666667,2.666667,5.0
103402,201,2020-03-31 20:08:52,EN,24,Female,"College degree, bachelor, master",College degree,Not employed,United States,no,PA,Single,0.0,Yes,Life carries on with minor changes,0.0,0.0,,,,,,,,,,,,,,,,,,,,,,,,,,,,,,,,,,,,,,,,,,,,,,,,,,,,,,,,,,,,,,,,,,,,,,,,,,,,,,,,,,,,,,,,,,,,,,,,,,,,,,,,,,,,,,,,,,,,,,
103406,1278,2020-03-30 20:25:36,EN,50,Male,"College degree, bachelor, master",College degree,Full time employed,United States,no,Indiana,Married/cohabiting,0.0,Yes,Life carries on with minor changes,1.0,0.0,,Program C,No,2.0,1.0,3.0,5.0,3.0,1.0,4.0,3.0,1.0,1.0,1.0,3.0,2.0,6.0,8.0,7.0,9.0,9.0,4.0,9.0,3.0,4.0,4.0,5.0,6.0,4.0,0.0,6.0,1.0,6.0,1.0,2.0,2.0,6.0,1.0,6.0,5.0,4.0,2.0,4.0,5.0,4.0,1.0,5.0,6.0,2.0,2.0,6.0,1.0,2.0,99.0,1.0,6.0,4.0,3.0,6.0,99.0,6.0,6.0,6.0,5.0,5.0,4.0,2.0,2.0,2.0,2.0,5.0,2.0,1.0,6.0,2.0,,5.0,4.0,5.0,5.0,6.0,5.0,6.0,6.0,5.0,5.0,4.0,3.0,4.0,1.0,2.0,6.0,2.0,3.0,6.0,4.0,4.0,4.0,3.0,5.0,4.0,3.0,,5.0,5.0,5.0,1.0,6.0,1.0,My wife had been my pillar of strength.,1.8,2.0,2.666667,4.666667,4.333333,5.666667,4.333333,5.2
103407,756,2020-03-30 20:16:32,EN,31,Female,"College degree, bachelor, master",PhD/Doctorate,Student,United States,no,PA,Single,0.0,Yes,Isolated,3.0,0.0,Program B,,Not sure,2.0,4.0,3.0,4.0,2.0,2.0,4.0,3.0,4.0,2.0,3.0,3.0,3.0,7.0,9.0,2.0,2.0,5.0,7.0,9.0,1.0,6.0,6.0,6.0,6.0,6.0,0.0,6.0,3.0,3.0,2.0,2.0,3.0,5.0,1.0,6.0,6.0,6.0,1.0,3.0,5.0,3.0,4.0,4.0,5.0,5.0,3.0,5.0,4.0,4.0,99.0,2.0,5.0,4.0,2.0,4.0,99.0,5.0,5.0,6.0,6.0,6.0,6.0,5.0,4.0,4.0,6.0,5.0,4.0,2.0,4.0,5.0,,5.0,6.0,6.0,6.0,6.0,6.0,6.0,6.0,5.0,6.0,2.0,6.0,6.0,4.0,5.0,5.0,1.0,1.0,5.0,5.0,4.0,5.0,4.0,4.0,1.0,1.0,,5.0,5.0,5.0,5.0,5.0,3.0,,2.8,3.0,2.333333,6.0,3.666667,4.0,4.666667,5.8
103420,1087,2020-03-30 20:20:08,EN,33,Male,"College degree, bachelor, master",Up to 12 years of school,Full time employed,United States,no,PA,Single,0.0,Yes,Life carries on with minor changes,3.0,0.0,Program A,,No,5.0,4.0,5.0,3.0,1.0,3.0,4.0,3.0,4.0,4.0,4.0,2.0,3.0,7.0,10.0,7.0,8.0,10.0,8.0,8.0,5.0,5.0,6.0,5.0,4.0,6.0,3.0,5.0,6.0,6.0,2.0,4.0,4.0,5.0,6.0,6.0,5.0,5.0,4.0,6.0,5.0,5.0,1.0,5.0,6.0,4.0,5.0,6.0,1.0,4.0,99.0,99.0,1.0,4.0,99.0,5.0,99.0,1.0,1.0,5.0,5.0,4.0,4.0,2.0,1.0,4.0,4.0,4.0,2.0,4.0,5.0,4.0,,6.0,6.0,4.0,2.0,6.0,6.0,6.0,6.0,6.0,6.0,6.0,6.0,5.0,6.0,5.0,4.0,1.0,1.0,6.0,3.0,6.0,5.0,5.0,5.0,1.0,5.0,,5.0,4.0,4.0,2.0,4.0,4.0,,3.8,3.0,4.0,4.333333,5.333333,5.666667,4.0,5.4
103424,1156,2020-03-30 20:19:21,SME,42,Female,PhD/Doctorate,College degree,Not employed,United States,yes,,Married/cohabiting,2.0,Yes,Isolated,1.0,2.0,Program B,,No,3.0,3.0,4.0,3.0,4.0,3.0,4.0,3.0,3.0,4.0,3.0,2.0,2.0,6.0,8.0,6.0,6.0,6.0,5.0,5.0,4.0,6.0,6.0,5.0,4.0,4.0,0.0,6.0,4.0,4.0,2.0,5.0,3.0,5.0,5.0,4.0,2.0,2.0,5.0,4.0,5.0,4.0,4.0,5.0,4.0,5.0,3.0,4.0,2.0,3.0,6.0,4.0,6.0,3.0,1.0,2.0,4.0,5.0,5.0,6.0,6.0,5.0,2.0,2.0,4.0,3.0,3.0,3.0,6.0,6.0,5.0,3.0,,5.0,5.0,5.0,5.0,5.0,5.0,5.0,5.0,5.0,5.0,3.0,5.0,5.0,4.0,4.0,3.0,3.0,3.0,4.0,4.0,5.0,4.0,3.0,5.0,1.0,4.0,,3.0,4.0,4.0,4.0,5.0,3.0,,3.0,2.333333,4.333333,2.0,4.333333,4.0,4.333333,5.0
103427,5999,2020-03-31 21:38:37,ZH-T,48,Female,PhD/Doctorate,Up to 12 years of school,Part time employed,United States,no,California,Married/cohabiting,0.0,Yes,Life carries on with minor changes,1.0,0.0,Program A,,No,2.0,3.0,4.0,4.0,4.0,3.0,4.0,4.0,4.0,2.0,2.0,2.0,2.0,,,,,,,,,3.0,3.0,3.0,5.0,6.0,1.0,6.0,6.0,6.0,1.0,4.0,6.0,5.0,5.0,4.0,5.0,5.0,4.0,5.0,5.0,5.0,4.0,5.0,5.0,5.0,3.0,5.0,4.0,1.0,1.0,1.0,1.0,1.0,1.0,1.0,1.0,4.0,1.0,3.0,1.0,2.0,1.0,1.0,1.0,1.0,1.0,3.0,2.0,1.0,4.0,1.0,,,,,,,,,,,,,,,,,,,,,,,,,,,,,,,,,,,,2.6,2.0,4.333333,4.333333,5.0,4.333333,4.666667,
103428,557,2020-03-31 20:08:16,SME,32,Male,"College degree, bachelor, master",PhD/Doctorate,Self-employed,United States,yes,California,Married/cohabiting,1.0,No,Isolated,1.0,1.0,,Program D,Yes,3.0,4.0,4.0,4.0,3.0,3.0,4.0,4.0,3.0,1.0,1.0,1.0,3.0,7.0,9.0,4.0,2.0,1.0,2.0,6.0,2.0,1.0,1.0,1.0,1.0,1.0,3.0,4.0,5.0,6.0,3.0,4.0,3.0,5.0,2.0,5.0,5.0,5.0,2.0,5.0,5.0,5.0,2.0,1.0,5.0,5.0,2.0,5.0,,,,,,,,,,,,,,,,,,,,,,,,,,,,,,,,,,,,,,,,,,,,,,,,,,,,,,,,,,,,2.7,1.666667,3.0,5.0,5.0,3.666667,5.0,
103441,4224,2020-03-30 21:06:21,EN,47,Male,"Some College, short continuing education or equivalent",Some College or equivalent,Not employed,United States,no,California,Single,0.0,Yes,Isolated,5.0,0.0,,,,3.0,4.0,4.0,4.0,3.0,3.0,2.0,3.0,3.0,3.0,2.0,2.0,2.0,7.0,10.0,6.0,6.0,7.0,8.0,9.0,6.0,4.0,5.0,5.0,6.0,6.0,3.0,5.0,5.0,5.0,2.0,4.0,1.0,5.0,4.0,4.0,5.0,3.0,5.0,5.0,5.0,6.0,3.0,6.0,6.0,5.0,4.0,4.0,6.0,2.0,99.0,6.0,4.0,3.0,1.0,6.0,99.0,5.0,5.0,3.0,4.0,3.0,99.0,1.0,1.0,2.0,4.0,3.0,2.0,2.0,3.0,2.0,Worried about risk of exposure to virus if I must go to ER/hospital/doctor/dentist for unrelated reasons.,5.0,4.0,5.0,6.0,5.0,3.0,5.0,5.0,5.0,5.0,4.0,4.0,5.0,4.0,4.0,5.0,5.0,4.0,5.0,6.0,4.0,4.0,4.0,6.0,5.0,4.0,,2.0,2.0,4.0,2.0,2.0,3.0,,3.2,2.0,4.0,3.333333,5.333333,5.333333,4.0,4.8
103473,654,2020-03-30 20:02:03,EN,24,Female,"College degree, bachelor, master",PhD/Doctorate,Student,United States,no,Massachusetts,Single,0.0,Yes,Life carries on with minor changes,1.0,0.0,,Program D,Not sure,4.0,3.0,5.0,2.0,2.0,5.0,3.0,3.0,4.0,5.0,2.0,3.0,3.0,8.0,9.0,6.0,4.0,5.0,3.0,3.0,2.0,2.0,3.0,2.0,6.0,6.0,0.0,5.0,4.0,3.0,5.0,4.0,4.0,5.0,4.0,3.0,6.0,6.0,1.0,5.0,6.0,3.0,4.0,6.0,6.0,5.0,1.0,6.0,1.0,5.0,99.0,4.0,3.0,5.0,2.0,6.0,99.0,6.0,3.0,3.0,4.0,1.0,5.0,,2.0,6.0,5.0,3.0,1.0,3.0,5.0,1.0,,6.0,6.0,6.0,6.0,6.0,6.0,6.0,6.0,6.0,6.0,5.0,6.0,6.0,1.0,6.0,1.0,1.0,2.0,6.0,5.0,4.0,5.0,6.0,6.0,4.0,4.0,walking and running outside,4.0,6.0,4.0,6.0,1.0,4.0,,4.0,2.666667,4.333333,6.0,4.666667,5.0,5.666667,6.0
103475,934,2020-03-30 20:06:35,ZH-T,59,Female,PhD/Doctorate,Up to 6 years of school,Retired,United States,no,<U+52A0><U+5DDE>,Married/cohabiting,1.0,Yes,Life carries on as usual,0.0,0.0,,Program D,,1.0,1.0,1.0,5.0,5.0,1.0,5.0,5.0,1.0,1.0,1.0,1.0,1.0,5.0,5.0,5.0,8.0,6.0,6.0,1.0,1.0,1.0,4.0,5.0,5.0,5.0,5.0,6.0,6.0,6.0,1.0,6.0,6.0,5.0,4.0,5.0,6.0,5.0,2.0,6.0,5.0,6.0,2.0,5.0,5.0,5.0,2.0,6.0,1.0,1.0,1.0,1.0,1.0,1.0,1.0,3.0,99.0,4.0,5.0,4.0,5.0,4.0,2.0,2.0,1.0,2.0,1.0,1.0,1.0,1.0,1.0,1.0,,5.0,5.0,5.0,4.0,4.0,5.0,5.0,5.0,5.0,5.0,5.0,4.0,5.0,4.0,5.0,5.0,2.0,2.0,5.0,5.0,4.0,5.0,5.0,5.0,5.0,5.0,,4.0,5.0,5.0,5.0,5.0,5.0,,1.0,1.0,3.666667,5.333333,5.666667,5.0,5.333333,4.8
103498,529,2020-03-31 19:57:38,ZH-T,49,Female,PhD/Doctorate,College degree,Full time employed,United States,no,<U+9EBB><U+7701>,Married/cohabiting,2.0,Yes,Life carries on with minor changes,,,,Program D,Not sure,4.0,4.0,3.0,3.0,3.0,3.0,2.0,3.0,2.0,3.0,4.0,2.0,3.0,7.0,7.0,3.0,5.0,3.0,2.0,1.0,1.0,3.0,4.0,4.0,5.0,4.0,2.0,3.0,5.0,5.0,5.0,3.0,5.0,4.0,3.0,4.0,3.0,5.0,5.0,4.0,5.0,4.0,4.0,5.0,5.0,4.0,2.0,4.0,,,,,,,,,,,,,,,,,,,,,,,,,,,,,,,,,,,,,,,,,,,,,,,,,,,,,,,,,,,,3.2,3.0,3.333333,3.333333,4.333333,4.333333,4.333333,
103517,773,2020-03-30 19:57:36,EN,48,Female,PhD/Doctorate,PhD/Doctorate,Full time employed,United States,no,VA,Married/cohabiting,2.0,No,Life carries on with minor changes,,,Program B,,Not sure,4.0,5.0,5.0,4.0,3.0,4.0,4.0,3.0,5.0,4.0,4.0,4.0,3.0,6.0,8.0,4.0,5.0,5.0,5.0,4.0,5.0,6.0,,6.0,6.0,6.0,4.0,6.0,4.0,5.0,4.0,3.0,6.0,4.0,3.0,5.0,4.0,4.0,3.0,4.0,5.0,4.0,4.0,6.0,6.0,6.0,2.0,5.0,5.0,6.0,6.0,6.0,5.0,5.0,3.0,4.0,99.0,6.0,5.0,5.0,6.0,6.0,4.0,4.0,4.0,6.0,5.0,4.0,4.0,2.0,6.0,6.0,,4.0,5.0,6.0,5.0,5.0,5.0,5.0,5.0,5.0,5.0,5.0,4.0,5.0,5.0,4.0,5.0,,2.0,4.0,6.0,6.0,4.0,5.0,4.0,3.0,5.0,,,4.0,5.0,3.0,,3.0,,3.7,3.666667,3.0,4.0,4.333333,5.0,5.333333,5.0
103552,1588,2020-03-30 20:06:08,SME,52,Female,"College degree, bachelor, master",Up to 12 years of school,Full time employed,United States,yes,"Washington, D.C.",Other or would rather not say,0.0,Yes,Isolated,0.0,0.0,Program B,,No,3.0,3.0,3.0,3.0,4.0,2.0,4.0,1.0,2.0,2.0,2.0,2.0,2.0,8.0,8.0,1.0,6.0,6.0,2.0,5.0,1.0,4.0,6.0,6.0,6.0,6.0,1.0,6.0,6.0,6.0,2.0,5.0,2.0,5.0,4.0,5.0,5.0,4.0,6.0,4.0,6.0,5.0,2.0,5.0,6.0,6.0,5.0,4.0,2.0,2.0,99.0,2.0,2.0,2.0,,99.0,99.0,5.0,2.0,4.0,4.0,6.0,1.0,4.0,2.0,2.0,4.0,2.0,2.0,1.0,4.0,4.0,,6.0,6.0,5.0,5.0,6.0,5.0,6.0,5.0,4.0,6.0,5.0,6.0,6.0,6.0,6.0,5.0,2.0,1.0,2.0,2.0,3.0,4.0,6.0,6.0,1.0,4.0,,5.0,4.0,5.0,2.0,5.0,2.0,,2.7,2.0,3.666667,3.333333,5.0,5.333333,4.0,5.4
103572,2524,2020-03-30 20:19:08,EN,29,Female,"College degree, bachelor, master",College degree,Full time employed,United States,no,MD,Single,0.0,Yes,Isolated,0.0,0.0,Program A,,No,4.0,3.0,3.0,5.0,3.0,2.0,5.0,4.0,5.0,2.0,4.0,4.0,4.0,5.0,9.0,3.0,,2.0,3.0,7.0,1.0,5.0,6.0,5.0,6.0,6.0,0.0,5.0,5.0,5.0,4.0,2.0,4.0,4.0,4.0,6.0,5.0,4.0,4.0,3.0,6.0,6.0,2.0,6.0,6.0,6.0,4.0,6.0,99.0,5.0,99.0,99.0,4.0,5.0,99.0,99.0,99.0,6.0,5.0,5.0,5.0,5.0,99.0,6.0,1.0,6.0,6.0,4.0,2.0,1.0,6.0,5.0,the long term effects on society in its multifaceted dimensions - how will the US reconstruct itself after this crisis? who will take charge and what changes will they make? When (if ever) will we finally create a platform of policy based on social protections and equity/justice not greed/power?,6.0,6.0,6.0,6.0,6.0,6.0,6.0,6.0,5.0,5.0,2.0,1.0,6.0,2.0,2.0,5.0,1.0,1.0,5.0,6.0,6.0,2.0,6.0,4.0,1.0,1.0,marijuana,1.0,6.0,5.0,4.0,4.0,1.0,"I am an emergency department nurse at a large hospital in Baltimore, Maryland - so my work provides me both with some human:human interaction and incredible purpose during this time (but also fear). I moved to Baltimore with no friends, no family, and no partner only 3 weeks before this crisis began, so my sense of isolation is even stronger and my dedication to work all the greater.",2.6,4.0,3.0,4.0,5.0,5.666667,5.0,5.8
103606,920,2020-03-30 19:47:37,ZH-T,57,Female,PhD/Doctorate,College degree,Full time employed,United States,no,Philadelphia,Divorced/widowed,0.0,No,Life carries on with minor changes,0.0,0.0,,Program C,,1.0,1.0,2.0,5.0,4.0,1.0,4.0,4.0,1.0,1.0,1.0,1.0,1.0,6.0,9.0,6.0,5.0,5.0,5.0,5.0,7.0,3.0,4.0,4.0,4.0,4.0,5.0,6.0,6.0,6.0,4.0,5.0,5.0,2.0,2.0,5.0,4.0,5.0,2.0,5.0,6.0,4.0,2.0,5.0,4.0,4.0,2.0,5.0,2.0,2.0,2.0,2.0,2.0,2.0,2.0,2.0,2.0,5.0,2.0,2.0,2.0,5.0,2.0,2.0,2.0,2.0,2.0,2.0,2.0,2.0,2.0,2.0,,5.0,5.0,5.0,5.0,5.0,5.0,5.0,5.0,5.0,5.0,5.0,1.0,5.0,1.0,5.0,5.0,1.0,1.0,5.0,5.0,5.0,5.0,5.0,5.0,2.0,5.0,,3.0,4.0,2.0,3.0,4.0,3.0,,1.4,1.0,2.0,4.666667,5.0,4.666667,4.666667,5.0
103609,955,2020-03-30 19:47:40,EN,55,Female,PhD/Doctorate,College degree,Full time employed,United States,no,Iowa,Married/cohabiting,1.0,Yes,Isolated,3.0,1.0,Program A,,No,1.0,1.0,4.0,4.0,4.0,3.0,5.0,3.0,1.0,1.0,1.0,1.0,1.0,6.0,10.0,10.0,6.0,1.0,0.0,9.0,0.0,4.0,6.0,4.0,6.0,6.0,0.0,6.0,5.0,4.0,3.0,2.0,6.0,5.0,6.0,2.0,5.0,4.0,2.0,5.0,6.0,6.0,5.0,5.0,5.0,2.0,2.0,5.0,1.0,4.0,1.0,6.0,4.0,2.0,99.0,2.0,99.0,6.0,3.0,3.0,3.0,4.0,6.0,2.0,4.0,1.0,5.0,3.0,4.0,4.0,3.0,1.0,,6.0,6.0,6.0,6.0,6.0,6.0,6.0,6.0,6.0,6.0,1.0,6.0,6.0,1.0,6.0,5.0,1.0,1.0,4.0,4.0,4.0,2.0,2.0,4.0,4.0,4.0,,3.0,6.0,5.0,6.0,4.0,6.0,,1.9,1.0,5.333333,4.666667,5.666667,4.0,4.0,6.0
103617,1008,2020-03-30 19:45:03,EN,57,Female,PhD/Doctorate,Some College or equivalent,Full time employed,United States,no,virginia,Divorced/widowed,1.0,Yes,Life carries on with minor changes,2.0,0.0,,,,2.0,2.0,3.0,4.0,3.0,3.0,3.0,3.0,3.0,2.0,3.0,2.0,3.0,6.0,7.0,5.0,5.0,7.0,6.0,8.0,4.0,5.0,6.0,4.0,5.0,5.0,0.0,6.0,5.0,5.0,1.0,4.0,3.0,5.0,3.0,4.0,4.0,3.0,5.0,5.0,4.0,4.0,5.0,3.0,3.0,4.0,2.0,5.0,3.0,5.0,99.0,1.0,4.0,4.0,1.0,3.0,99.0,5.0,3.0,6.0,5.0,6.0,1.0,3.0,3.0,4.0,4.0,3.0,3.0,3.0,3.0,1.0,,3.0,4.0,3.0,3.0,4.0,6.0,5.0,5.0,5.0,4.0,4.0,5.0,4.0,1.0,5.0,4.0,1.0,2.0,3.0,5.0,3.0,4.0,5.0,5.0,1.0,5.0,Being in nature,4.0,5.0,3.0,5.0,5.0,3.0,Life is not so different as I have an adult child with a rare disease and work from home. The main difference is my worry that I might get sick and not be able to care for her.,2.6,2.666667,3.666667,3.0,4.333333,2.666667,4.666667,4.2
103618,933,2020-03-30 19:43:35,EN,36,Female,"College degree, bachelor, master",Up to 12 years of school,Not employed,United States,no,Kansas,Married/cohabiting,2.0,Yes,Isolated,1.0,2.0,,Program C,Yes,3.0,3.0,3.0,4.0,3.0,2.0,1.0,3.0,2.0,3.0,3.0,2.0,2.0,7.0,10.0,3.0,7.0,8.0,7.0,8.0,3.0,5.0,6.0,5.0,5.0,5.0,6.0,4.0,4.0,5.0,2.0,5.0,5.0,4.0,5.0,4.0,5.0,2.0,5.0,5.0,6.0,6.0,5.0,5.0,5.0,4.0,1.0,6.0,99.0,99.0,5.0,99.0,6.0,5.0,99.0,3.0,1.0,6.0,2.0,6.0,6.0,5.0,99.0,4.0,1.0,4.0,2.0,1.0,5.0,3.0,5.0,1.0,"Masks, I'm worried about whether we should all be wearing them to prevent asymptomatic carriers from spreading the disease",5.0,5.0,5.0,5.0,6.0,5.0,5.0,6.0,5.0,6.0,4.0,1.0,,1.0,5.0,5.0,1.0,1.0,6.0,4.0,5.0,5.0,2.0,4.0,2.0,4.0,,3.0,4.0,6.0,5.0,5.0,1.0,,2.9,2.333333,4.0,3.0,5.666667,4.0,5.333333,5.3
103623,7555,2020-03-31 21:32:42,EN,26,Female,"College degree, bachelor, master",Some College or equivalent,Full time employed,United States,yes,Ny,Single,2.0,No,Isolated,2.0,0.0,Program A,,No,2.0,1.0,2.0,5.0,4.0,2.0,5.0,4.0,2.0,1.0,3.0,3.0,1.0,6.0,8.0,6.0,6.0,6.0,7.0,8.0,4.0,2.0,3.0,3.0,5.0,6.0,3.0,5.0,5.0,5.0,1.0,4.0,2.0,2.0,2.0,5.0,4.0,4.0,5.0,2.0,5.0,2.0,2.0,5.0,5.0,4.0,4.0,5.0,2.0,5.0,99.0,2.0,3.0,2.0,2.0,5.0,5.0,5.0,5.0,4.0,2.0,5.0,2.0,2.0,2.0,2.0,2.0,99.0,5.0,3.0,5.0,2.0,,,,,,,,,,,,,,,,,,,,,,,,,,,,,,,,,,,,1.6,2.333333,2.0,3.333333,3.0,5.0,4.0,
103628,926,2020-03-30 19:40:41,EN,45,Female,"College degree, bachelor, master",College degree,Part time employed,United States,no,Va,Married/cohabiting,2.0,No,Life carries on with minor changes,1.0,2.0,Program A,,No,3.0,2.0,4.0,4.0,3.0,3.0,4.0,3.0,3.0,3.0,3.0,2.0,3.0,7.0,9.0,5.0,5.0,5.0,2.0,6.0,4.0,1.0,1.0,1.0,1.0,1.0,1.0,1.0,1.0,1.0,2.0,3.0,1.0,4.0,4.0,5.0,5.0,6.0,1.0,5.0,6.0,1.0,2.0,5.0,5.0,3.0,2.0,5.0,6.0,5.0,5.0,5.0,5.0,2.0,2.0,5.0,4.0,5.0,5.0,5.0,5.0,5.0,2.0,2.0,5.0,3.0,5.0,5.0,5.0,3.0,5.0,1.0,My familys health. My husband and parents are in medical fields.,2.0,5.0,2.0,3.0,5.0,5.0,3.0,5.0,5.0,5.0,3.0,2.0,5.0,4.0,5.0,5.0,3.0,3.0,5.0,5.0,5.0,5.0,5.0,5.0,3.0,2.0,,4.0,5.0,5.0,5.0,4.0,4.0,,2.8,2.666667,3.333333,5.666667,4.0,5.0,4.333333,4.0
103637,219,2020-03-31 19:26:25,EN,21,Male,"Some College, short continuing education or equivalent",College degree,Student,United States,no,Pennsylvania,Single,0.0,Yes,Isolated,2.0,0.0,Program A,,Not sure,3.0,3.0,4.0,4.0,4.0,4.0,3.0,1.0,3.0,5.0,5.0,4.0,4.0,,,,,,,,,,,,,,,,,,,,,,,,,,,,,,,,,,,,,,,,,,,,,,,,,,,,,,,,,,,,,,,,,,,,,,,,,,,,,,,,,,,,,,,,,,,,,,,3.4,4.333333,,,,,,
103641,487,2020-03-31 19:34:42,LT,52,Female,Up to 12 years of school,Up to 12 years of school,Self-employed,United States,yes,Ohio,Married/cohabiting,0.0,No,Life carries on with minor changes,1.0,0.0,,Program C,No,1.0,1.0,1.0,3.0,2.0,1.0,1.0,5.0,1.0,1.0,1.0,1.0,1.0,,,,,,,,,,,,,,,,,,,,,,,,,,,,,,,,,,,,,,,,,,,,,,,,,,,,,,,,,,,,,,,,,,,,,,,,,,,,,,,,,,,,,,,,,,,,,,,1.9,1.0,,,,,,
103642,1208,2020-03-30 19:41:12,EN,27,Female,PhD/Doctorate,Some College or equivalent,Student,United States,yes,New York,Single,0.0,Yes,Isolated,0.0,0.0,,Program C,Not sure,4.0,3.0,3.0,3.0,3.0,3.0,3.0,3.0,4.0,3.0,4.0,3.0,4.0,5.0,7.0,5.0,4.0,5.0,5.0,7.0,3.0,4.0,4.0,4.0,6.0,6.0,5.0,4.0,6.0,6.0,3.0,2.0,6.0,3.0,3.0,6.0,3.0,3.0,6.0,6.0,6.0,6.0,1.0,6.0,6.0,6.0,3.0,6.0,2.0,5.0,99.0,6.0,3.0,3.0,4.0,99.0,6.0,3.0,3.0,5.0,99.0,5.0,1.0,2.0,99.0,5.0,1.0,3.0,3.0,3.0,6.0,6.0,,6.0,4.0,6.0,6.0,6.0,6.0,6.0,6.0,6.0,6.0,5.0,6.0,6.0,6.0,6.0,5.0,2.0,6.0,2.0,5.0,6.0,5.0,6.0,6.0,6.0,6.0,,6.0,3.0,3.0,6.0,4.0,3.0,,3.2,3.666667,2.333333,2.333333,6.0,6.0,5.333333,5.8
103657,1772,2020-03-30 19:46:57,EN,73,Male,"College degree, bachelor, master",College degree,Retired,United States,no,Virginia,Married/cohabiting,1.0,Yes,Isolated,1.0,0.0,Program A,,No,3.0,4.0,4.0,5.0,3.0,3.0,4.0,5.0,2.0,2.0,1.0,4.0,5.0,6.0,7.0,6.0,8.0,9.0,7.0,7.0,5.0,5.0,5.0,5.0,5.0,5.0,3.0,5.0,5.0,5.0,2.0,4.0,3.0,4.0,5.0,5.0,2.0,2.0,5.0,5.0,5.0,5.0,4.0,5.0,4.0,5.0,3.0,5.0,1.0,99.0,99.0,99.0,5.0,4.0,1.0,5.0,99.0,6.0,2.0,4.0,5.0,5.0,99.0,2.0,2.0,4.0,6.0,4.0,5.0,2.0,5.0,2.0,? I will miss my grandson's 3rd Birthday. He lives 250 miles away.....,1.0,2.0,2.0,1.0,1.0,4.0,1.0,1.0,4.0,2.0,5.0,5.0,4.0,2.0,1.0,4.0,,1.0,5.0,4.0,5.0,5.0,5.0,5.0,1.0,5.0,"That Mr Trump will soon be gone, but not soon enough",5.0,3.0,5.0,4.0,5.0,1.0,"Official incompetence is a big threat.  Sorting out the truth and filtering out mass media lies is also a huge threat.  For success in fighting pandemics, the truth has to be dominant.",2.5,3.333333,3.666667,2.0,5.0,4.0,4.666667,1.9
103674,3488,2020-03-30 20:11:06,EN,61,Female,"College degree, bachelor, master",Up to 6 years of school,Retired,United States,no,California,Married/cohabiting,0.0,Yes,Life carries on with minor changes,1.0,0.0,Program A,,No,1.0,1.0,1.0,5.0,1.0,2.0,5.0,5.0,1.0,2.0,2.0,2.0,2.0,7.0,8.0,5.0,4.0,8.0,8.0,4.0,6.0,1.0,2.0,1.0,6.0,6.0,2.0,5.0,6.0,6.0,1.0,4.0,1.0,1.0,1.0,6.0,5.0,5.0,2.0,5.0,6.0,2.0,1.0,6.0,6.0,6.0,3.0,6.0,1.0,99.0,99.0,99.0,1.0,1.0,1.0,1.0,99.0,5.0,99.0,4.0,1.0,3.0,99.0,6.0,1.0,1.0,6.0,1.0,1.0,1.0,4.0,2.0,,6.0,6.0,5.0,6.0,5.0,6.0,4.0,5.0,6.0,6.0,5.0,4.0,4.0,1.0,1.0,4.0,2.0,1.0,4.0,4.0,1.0,6.0,1.0,6.0,5.0,6.0,,,,,,,,,1.6,2.0,1.0,5.0,4.333333,6.0,5.333333,5.5
103678,1651,2020-03-30 19:39:07,ZH-T,59,Female,PhD/Doctorate,College degree,Retired,United States,no,Texas,Married/cohabiting,2.0,Yes,Isolated,2.0,0.0,,Program D,Not sure,2.0,5.0,2.0,4.0,4.0,2.0,4.0,3.0,2.0,2.0,1.0,2.0,1.0,7.0,8.0,4.0,4.0,6.0,5.0,3.0,2.0,2.0,2.0,2.0,4.0,4.0,5.0,6.0,6.0,6.0,2.0,5.0,4.0,2.0,2.0,5.0,4.0,4.0,5.0,4.0,6.0,6.0,2.0,5.0,5.0,5.0,2.0,5.0,2.0,99.0,2.0,2.0,2.0,1.0,99.0,2.0,2.0,4.0,4.0,3.0,3.0,4.0,2.0,5.0,2.0,1.0,2.0,2.0,2.0,2.0,2.0,2.0,,4.0,6.0,2.0,5.0,6.0,5.0,5.0,6.0,4.0,6.0,5.0,4.0,4.0,4.0,4.0,4.0,1.0,1.0,2.0,4.0,5.0,5.0,5.0,5.0,4.0,4.0,,2.0,2.0,2.0,2.0,2.0,3.0,"<U+5C0D><U+6211><U+4F86><U+8AAA><U+3001><U+5C0D><U+6211><U+7684><U+5F71><U+97FF><U+4E0D><U+5927>,<U+6211><U+672C><U+4F86><U+5C31><U+7368><U+4F86><U+7368><U+5F80>,<U+5012><U+662F><U+64D4><U+5FC3><U+5BB6><U+4EBA><U+5DE5><U+4F5C><U+548C><U+5065><U+5EB7><U+3002><U+6211><U+500B><U+4EBA><U+89BA><U+5F97><U+9019><U+662F><U+81EA><U+7136><U+754C><U+72C0><U+6CC1>,<U+751A><U+81F3><U+81EA><U+7136><U+5929><U+707D><U+66F4><U+53EF><U+80FD><U+9020><U+6210><U+66F4><U+591A><U+4EBA><U+591A><U+7684><U+6B7B><U+4EA1>,<U+6211><U+5011><U+80FD><U+600E><U+9EBC><U+6A23><U+FF1F> <U+73FE><U+5728><U+9664><U+4E86><U+9694><U+96E2>,<U+6C92><U+6709><U+5176><U+4ED6><U+65B9><U+6CD5><U+3002>",2.4,1.333333,2.0,3.333333,5.333333,5.0,5.0,4.9
103679,610,2020-03-30 19:21:44,ZH-T,39,Female,"College degree, bachelor, master",Up to 9 years of school,Not employed,United States,yes,Tennessee,Married/cohabiting,0.0,Yes,Life carries on with minor changes,1.0,0.0,,Program D,,2.0,2.0,2.0,3.0,1.0,3.0,2.0,2.0,2.0,3.0,1.0,1.0,1.0,6.0,8.0,7.0,5.0,4.0,5.0,0.0,6.0,3.0,3.0,3.0,4.0,4.0,6.0,4.0,6.0,6.0,1.0,4.0,6.0,3.0,6.0,4.0,3.0,1.0,6.0,3.0,6.0,2.0,2.0,4.0,3.0,2.0,5.0,2.0,1.0,99.0,99.0,99.0,4.0,1.0,99.0,4.0,99.0,4.0,4.0,4.0,4.0,4.0,99.0,4.0,3.0,1.0,1.0,4.0,4.0,4.0,4.0,4.0,,5.0,2.0,2.0,4.0,4.0,4.0,5.0,5.0,3.0,4.0,4.0,4.0,4.0,1.0,4.0,2.0,4.0,3.0,4.0,2.0,2.0,2.0,2.0,4.0,1.0,4.0,,4.0,3.0,4.0,1.0,3.0,4.0,,3.0,1.0,4.0,1.666667,3.666667,4.0,2.0,3.8
103682,1385,2020-03-30 19:34:05,EN,59,Female,PhD/Doctorate,Some College or equivalent,Full time employed,United States,no,Virginia,Married/cohabiting,1.0,Yes,Isolated,2.0,0.0,,Program C,No,3.0,3.0,5.0,4.0,3.0,5.0,4.0,1.0,3.0,3.0,4.0,3.0,4.0,7.0,8.0,4.0,7.0,9.0,9.0,10.0,2.0,6.0,5.0,5.0,5.0,5.0,2.0,6.0,6.0,6.0,2.0,5.0,3.0,5.0,2.0,5.0,6.0,6.0,2.0,6.0,6.0,5.0,1.0,5.0,5.0,5.0,2.0,5.0,2.0,5.0,4.0,4.0,2.0,6.0,5.0,5.0,99.0,5.0,2.0,5.0,5.0,99.0,2.0,4.0,2.0,6.0,3.0,5.0,1.0,2.0,5.0,99.0,Impact on high school & college seniors,5.0,5.0,5.0,5.0,5.0,5.0,5.0,5.0,5.0,5.0,2.0,2.0,6.0,6.0,6.0,6.0,1.0,1.0,6.0,5.0,5.0,6.0,4.0,4.0,5.0,4.0,Household organizing and cleaning,3.0,6.0,6.0,3.0,6.0,5.0,"My town still has wonderful small businesses & restaurants that give it a unique identity and Sense of place. Since big companies now set & control rents, the only new businesses tend to be franchises. I worry that COViD-19 will cause us to lose the small, independent businesses that make the community interesting and special. Meanwhile, our federal government is creating a. Safety net for big companiesincluding the Presidentsnot for Independent businesses, individuals, & families.",3.4,3.666667,3.0,5.666667,5.666667,5.333333,5.0,5.0
103686,843,2020-03-30 19:24:37,EN,23,Female,"College degree, bachelor, master",Some College or equivalent,Part time employed,United States,no,Pennsylvania,Married/cohabiting,0.0,Yes,Life carries on with minor changes,4.0,0.0,,Program D,No,4.0,4.0,4.0,3.0,3.0,3.0,3.0,3.0,3.0,3.0,2.0,2.0,4.0,3.0,7.0,3.0,1.0,3.0,2.0,4.0,1.0,4.0,6.0,6.0,6.0,6.0,4.0,5.0,5.0,5.0,3.0,4.0,3.0,6.0,6.0,2.0,4.0,4.0,4.0,5.0,6.0,6.0,3.0,4.0,4.0,4.0,4.0,4.0,5.0,6.0,99.0,2.0,4.0,4.0,2.0,4.0,99.0,3.0,3.0,4.0,4.0,6.0,4.0,2.0,5.0,4.0,4.0,4.0,6.0,2.0,6.0,1.0,,6.0,5.0,5.0,6.0,6.0,6.0,6.0,6.0,6.0,6.0,4.0,3.0,5.0,2.0,4.0,5.0,4.0,4.0,5.0,3.0,5.0,4.0,4.0,5.0,5.0,5.0,,4.0,4.0,4.0,4.0,4.0,1.0,,3.3,2.666667,5.666667,3.666667,5.666667,4.0,3.666667,5.8
103687,2640,2020-03-30 19:54:19,EN,48,Female,PhD/Doctorate,College degree,Full time employed,United States,no,Indiana,Divorced/widowed,2.0,Yes,Isolated,0.0,2.0,Program A,,No,5.0,5.0,5.0,2.0,2.0,5.0,3.0,2.0,5.0,5.0,1.0,3.0,1.0,4.0,7.0,0.0,,5.0,1.0,6.0,,6.0,6.0,5.0,5.0,5.0,0.0,6.0,6.0,4.0,1.0,2.0,4.0,5.0,6.0,6.0,6.0,5.0,4.0,6.0,6.0,6.0,5.0,2.0,5.0,5.0,3.0,6.0,6.0,2.0,1.0,6.0,1.0,1.0,1.0,99.0,1.0,6.0,4.0,5.0,6.0,4.0,1.0,1.0,1.0,1.0,1.0,1.0,2.0,1.0,6.0,4.0,,1.0,6.0,5.0,2.0,2.0,2.0,2.0,6.0,6.0,1.0,1.0,6.0,4.0,2.0,2.0,1.0,1.0,1.0,4.0,2.0,6.0,5.0,6.0,6.0,5.0,2.0,,1.0,6.0,6.0,2.0,6.0,1.0,"The minute it hit, there was a hiring freeze every single place I have applied for a job. I am, for the first time in my life, at age 48, looking for a job. I feel like one of the unluckiest people in America, though I know some people have it worse. It's very hard, now, to watch other people have cushy lives. I feel the tension from others, as well--this has really heightened the state of inequality in America, and resentment has festered. This isn't necessarily a bad thing. I feel like this is a moment where we'll realize what our country has turned into.",4.5,1.666667,4.0,4.666667,6.0,3.0,5.0,3.3
103692,422,2020-03-30 19:15:14,SME,59,Male,Up to 6 years of school,,Full time employed,United States,yes,California,Single,0.0,No,Life carries on with minor changes,,,,,,,,,,,,,,,,,,,,,,,,,,,,,,,,,,,,,,,,,,,,,,,,,,,,,,,,,,,,,,,,,,,,,,,,,,,,,,,,,,,,,,,,,,,,,,,,,,,,,,,,,,,,,,,,,,,,,,,,
103695,794,2020-03-30 19:20:20,EN,23,Female,"College degree, bachelor, master",Up to 12 years of school,Self-employed,United States,no,PA,Single,0.0,Yes,Isolated,2.0,0.0,Program A,,No,4.0,5.0,5.0,3.0,2.0,3.0,3.0,3.0,4.0,3.0,3.0,3.0,4.0,5.0,9.0,4.0,5.0,5.0,6.0,6.0,5.0,5.0,6.0,6.0,6.0,5.0,3.0,5.0,5.0,5.0,4.0,4.0,6.0,6.0,5.0,1.0,5.0,3.0,3.0,6.0,5.0,6.0,2.0,5.0,5.0,6.0,3.0,5.0,5.0,3.0,99.0,4.0,6.0,5.0,3.0,6.0,99.0,4.0,5.0,6.0,6.0,5.0,99.0,5.0,5.0,6.0,6.0,5.0,3.0,2.0,6.0,99.0,,5.0,5.0,4.0,5.0,5.0,5.0,4.0,6.0,4.0,5.0,3.0,6.0,4.0,2.0,2.0,2.0,4.0,4.0,4.0,3.0,3.0,4.0,2.0,5.0,4.0,6.0,,5.0,3.0,5.0,4.0,5.0,1.0,,3.7,3.333333,5.666667,4.0,5.666667,5.0,5.0,4.8
103699,1177,2020-03-30 19:25:37,EN,58,Female,"College degree, bachelor, master",College degree,Not employed,United States,no,Virgina,Married/cohabiting,1.0,Yes,Life carries on with minor changes,2.0,1.0,,Program C,No,1.0,3.0,2.0,5.0,3.0,1.0,5.0,5.0,1.0,2.0,2.0,2.0,1.0,5.0,7.0,6.0,8.0,7.0,8.0,7.0,6.0,3.0,5.0,4.0,5.0,5.0,4.0,5.0,5.0,5.0,1.0,3.0,2.0,1.0,2.0,5.0,3.0,2.0,2.0,6.0,6.0,5.0,1.0,5.0,5.0,5.0,1.0,5.0,2.0,1.0,1.0,4.0,2.0,2.0,6.0,1.0,1.0,4.0,3.0,5.0,3.0,3.0,2.0,2.0,2.0,2.0,2.0,2.0,3.0,2.0,4.0,1.0,,5.0,5.0,5.0,5.0,5.0,5.0,5.0,5.0,5.0,5.0,4.0,5.0,5.0,1.0,5.0,4.0,1.0,1.0,4.0,6.0,4.0,5.0,6.0,6.0,6.0,4.0,,3.0,3.0,4.0,3.0,2.0,2.0,,1.6,1.666667,1.666667,3.333333,5.666667,5.333333,5.333333,5.0
103709,1107,2020-03-30 19:22:14,EN,50,Male,"Some College, short continuing education or equivalent",,Full time employed,United States,no,Michigan,Married/cohabiting,2.0,No,Life carries on with minor changes,3.0,0.0,Program B,,No,,1.0,3.0,5.0,5.0,1.0,2.0,5.0,1.0,1.0,1.0,1.0,2.0,5.0,8.0,7.0,7.0,5.0,7.0,8.0,4.0,3.0,3.0,4.0,5.0,5.0,0.0,1.0,1.0,1.0,1.0,2.0,4.0,2.0,1.0,5.0,3.0,3.0,2.0,4.0,1.0,4.0,2.0,5.0,5.0,4.0,2.0,5.0,2.0,3.0,3.0,4.0,2.0,3.0,1.0,6.0,2.0,4.0,5.0,1.0,5.0,5.0,3.0,3.0,2.0,1.0,1.0,3.0,5.0,3.0,2.0,6.0,Lack of trust in Executive Branch Govt elected officials,2.0,5.0,2.0,3.0,2.0,4.0,2.0,6.0,6.0,5.0,4.0,3.0,3.0,3.0,4.0,3.0,1.0,1.0,1.0,6.0,5.0,3.0,6.0,6.0,1.0,5.0,,1.0,4.0,4.0,3.0,1.0,6.0,"Politizing truth, gaslighting and outright lying by elected Executive Branch Govt officials",1.555556,1.333333,1.666667,3.666667,3.0,5.0,4.666667,3.7
103713,697,2020-03-30 19:14:23,EN,39,Male,"Some College, short continuing education or equivalent",College degree,Full time employed,United States,no,Wisconsin,Single,0.0,Yes,Isolated,0.0,0.0,,Program D,No,3.0,1.0,2.0,5.0,4.0,2.0,5.0,4.0,2.0,1.0,1.0,1.0,1.0,8.0,9.0,4.0,6.0,6.0,7.0,6.0,5.0,2.0,6.0,4.0,5.0,5.0,5.0,6.0,2.0,4.0,2.0,4.0,4.0,3.0,5.0,4.0,2.0,1.0,5.0,4.0,4.0,5.0,1.0,6.0,4.0,5.0,5.0,5.0,1.0,4.0,99.0,1.0,4.0,1.0,3.0,99.0,99.0,3.0,3.0,4.0,3.0,4.0,2.0,1.0,1.0,2.0,1.0,1.0,2.0,1.0,3.0,1.0,,6.0,6.0,5.0,6.0,6.0,6.0,6.0,6.0,6.0,6.0,1.0,6.0,5.0,1.0,1.0,4.0,5.0,4.0,2.0,3.0,1.0,3.0,2.0,5.0,5.0,3.0,,2.0,2.0,2.0,4.0,2.0,3.0,,1.7,1.0,3.666667,1.666667,4.333333,5.333333,4.0,5.9
103725,934,2020-03-30 19:16:16,EN,30,Female,"College degree, bachelor, master",Up to 12 years of school,Full time employed,United States,no,Mn,Married/cohabiting,0.0,No,Life carries on with minor changes,2.0,0.0,Program A,,No,2.0,2.0,2.0,4.0,3.0,2.0,5.0,4.0,1.0,1.0,1.0,2.0,2.0,4.0,7.0,2.0,4.0,6.0,4.0,8.0,3.0,2.0,2.0,3.0,5.0,4.0,2.0,6.0,6.0,5.0,1.0,4.0,2.0,3.0,4.0,3.0,2.0,2.0,5.0,4.0,6.0,4.0,2.0,5.0,5.0,5.0,4.0,5.0,1.0,2.0,99.0,1.0,1.0,2.0,2.0,1.0,99.0,4.0,3.0,2.0,2.0,4.0,4.0,2.0,1.0,3.0,2.0,2.0,2.0,1.0,3.0,5.0,,5.0,6.0,5.0,6.0,5.0,5.0,6.0,5.0,4.0,4.0,2.0,2.0,6.0,2.0,5.0,4.0,1.0,2.0,,4.0,3.0,3.0,2.0,5.0,6.0,4.0,,2.0,2.0,2.0,2.0,4.0,2.0,,1.8,1.666667,3.666667,2.0,4.666667,5.0,4.333333,5.1
103726,1800,2020-03-30 19:30:36,ZH-T,63,Female,"College degree, bachelor, master",Up to 9 years of school,Retired,United States,no,<U+52A0><U+5DDE>,Married/cohabiting,0.0,Yes,Life carries on with minor changes,,,Program B,,,2.0,2.0,2.0,4.0,4.0,3.0,2.0,2.0,2.0,2.0,2.0,2.0,2.0,8.0,9.0,7.0,8.0,8.0,8.0,5.0,6.0,4.0,4.0,4.0,5.0,5.0,3.0,5.0,5.0,5.0,2.0,3.0,3.0,4.0,5.0,4.0,4.0,4.0,4.0,4.0,5.0,4.0,2.0,5.0,4.0,4.0,3.0,3.0,4.0,2.0,2.0,5.0,4.0,2.0,2.0,4.0,5.0,5.0,5.0,5.0,4.0,5.0,2.0,2.0,2.0,4.0,4.0,2.0,5.0,4.0,5.0,5.0,,4.0,4.0,4.0,4.0,4.0,4.0,4.0,5.0,4.0,5.0,5.0,4.0,4.0,2.0,4.0,2.0,3.0,2.0,3.0,4.0,5.0,4.0,5.0,4.0,5.0,5.0,,5.0,4.0,5.0,3.0,2.0,4.0,,2.5,2.0,4.0,3.666667,4.333333,4.666667,3.666667,4.2
103729,890,2020-03-30 19:15:01,ZH-T,57,Female,PhD/Doctorate,College degree,Full time employed,United States,yes,<U+52A0><U+5DDE>,Divorced/widowed,1.0,No,Life carries on with minor changes,,,,,,2.0,2.0,2.0,5.0,4.0,1.0,4.0,4.0,2.0,1.0,1.0,1.0,1.0,6.0,9.0,3.0,5.0,8.0,8.0,,5.0,2.0,2.0,2.0,5.0,6.0,0.0,4.0,6.0,6.0,1.0,4.0,6.0,4.0,1.0,6.0,5.0,5.0,5.0,6.0,5.0,5.0,1.0,6.0,5.0,4.0,4.0,6.0,2.0,2.0,2.0,3.0,2.0,2.0,2.0,99.0,99.0,5.0,4.0,3.0,2.0,4.0,1.0,1.0,2.0,2.0,2.0,2.0,2.0,1.0,2.0,2.0,,5.0,4.0,5.0,5.0,4.0,5.0,5.0,6.0,5.0,5.0,5.0,4.0,5.0,3.0,4.0,4.0,4.0,3.0,5.0,4.0,6.0,5.0,5.0,5.0,6.0,5.0,,3.0,5.0,4.0,3.0,3.0,2.0,,1.7,1.0,2.0,4.0,5.333333,5.666667,4.333333,4.9
103730,1011,2020-03-30 19:16:48,EN,26,Female,"College degree, bachelor, master",PhD/Doctorate,Not employed,United States,no,Connecticut,Married/cohabiting,0.0,Yes,Isolated,1.0,0.0,Program A,,No,3.0,4.0,5.0,3.0,3.0,4.0,4.0,2.0,3.0,4.0,2.0,1.0,4.0,5.0,7.0,0.0,3.0,7.0,0.0,8.0,,3.0,6.0,5.0,5.0,5.0,0.0,5.0,6.0,5.0,2.0,3.0,4.0,5.0,5.0,2.0,5.0,2.0,5.0,4.0,6.0,6.0,2.0,2.0,5.0,4.0,4.0,4.0,99.0,99.0,99.0,5.0,4.0,5.0,5.0,2.0,99.0,5.0,3.0,5.0,5.0,6.0,99.0,4.0,4.0,5.0,4.0,2.0,4.0,2.0,4.0,4.0,,6.0,6.0,5.0,6.0,6.0,4.0,6.0,6.0,5.0,6.0,1.0,5.0,6.0,2.0,2.0,2.0,6.0,2.0,6.0,5.0,4.0,4.0,2.0,6.0,2.0,4.0,,2.0,5.0,5.0,5.0,2.0,3.0,,3.5,2.333333,5.0,3.0,5.333333,4.0,3.666667,5.6
103731,2701,2020-03-30 19:44:52,ZH-T,58,Female,PhD/Doctorate,Up to 9 years of school,,United States,no,Michigan,Married/cohabiting,1.0,Yes,Life carries on with minor changes,2.0,0.0,Program B,,Not sure,3.0,3.0,3.0,4.0,3.0,3.0,3.0,3.0,3.0,2.0,3.0,3.0,1.0,6.0,8.0,8.0,8.0,8.0,8.0,7.0,8.0,4.0,5.0,4.0,4.0,5.0,8.0,5.0,5.0,5.0,4.0,5.0,5.0,4.0,4.0,4.0,3.0,4.0,4.0,3.0,5.0,3.0,3.0,5.0,3.0,5.0,2.0,4.0,2.0,99.0,99.0,99.0,4.0,3.0,2.0,4.0,99.0,5.0,2.0,5.0,4.0,5.0,4.0,4.0,4.0,2.0,2.0,4.0,5.0,2.0,2.0,2.0,,6.0,6.0,6.0,6.0,6.0,6.0,6.0,6.0,6.0,6.0,5.0,6.0,6.0,,,4.0,,,4.0,5.0,4.0,5.0,,5.0,6.0,4.0,,5.0,5.0,5.0,4.0,5.0,4.0,,2.8,2.333333,3.666667,3.333333,3.666667,4.0,4.666667,6.0
103738,6234,2020-03-30 20:42:27,ZH-T,41,Female,PhD/Doctorate,Up to 12 years of school,Not employed,United States,yes,Florida,Married/cohabiting,0.0,No,Life carries on with minor changes,,,,Program D,Yes,4.0,3.0,3.0,3.0,3.0,3.0,3.0,2.0,3.0,3.0,2.0,2.0,2.0,7.0,7.0,5.0,6.0,6.0,2.0,0.0,5.0,5.0,3.0,3.0,6.0,5.0,2.0,2.0,5.0,5.0,3.0,5.0,5.0,5.0,5.0,3.0,3.0,3.0,4.0,6.0,6.0,5.0,4.0,4.0,3.0,4.0,4.0,4.0,5.0,5.0,4.0,99.0,5.0,2.0,1.0,4.0,5.0,6.0,5.0,6.0,5.0,3.0,3.0,2.0,4.0,2.0,5.0,4.0,6.0,3.0,6.0,99.0,,6.0,2.0,4.0,3.0,4.0,3.0,4.0,5.0,3.0,5.0,4.0,4.0,5.0,1.0,4.0,4.0,4.0,3.0,5.0,4.0,4.0,4.0,5.0,5.0,1.0,4.0,,5.0,5.0,6.0,2.0,6.0,2.0,,3.2,2.0,4.666667,3.0,5.666667,3.333333,3.666667,3.9
103740,128,2020-03-31 19:00:31,ZH-T,26,Female,"College degree, bachelor, master",College degree,,United States,yes,<U+5FB7><U+5DDE>,Single,0.0,Yes,Isolated,2.0,0.0,,,,,,,,,,,,,,,,,,,,,,,,,,,,,,,,,,,,,,,,,,,,,,,,,,,,,,,,,,,,,,,,,,,,,,,,,,,,,,,,,,,,,,,,,,,,,,,,,,,,,,,,,,,,,,,,,,,,,,
103747,1853,2020-03-30 19:27:33,EN,49,Female,"College degree, bachelor, master",College degree,Full time employed,United States,no,Co,Married/cohabiting,3.0,No,Isolated,1.0,0.0,,Program C,Not sure,3.0,3.0,3.0,4.0,3.0,1.0,4.0,3.0,2.0,2.0,2.0,1.0,3.0,5.0,7.0,7.0,7.0,7.0,8.0,9.0,6.0,5.0,5.0,5.0,6.0,5.0,1.0,5.0,5.0,5.0,2.0,4.0,4.0,1.0,1.0,6.0,3.0,2.0,4.0,4.0,6.0,1.0,1.0,5.0,5.0,5.0,1.0,5.0,2.0,3.0,4.0,4.0,3.0,4.0,5.0,1.0,1.0,5.0,3.0,4.0,4.0,4.0,5.0,3.0,3.0,4.0,4.0,2.0,5.0,3.0,5.0,4.0,,5.0,5.0,5.0,6.0,6.0,5.0,6.0,6.0,6.0,5.0,2.0,5.0,6.0,3.0,5.0,5.0,1.0,1.0,5.0,5.0,5.0,2.0,4.0,4.0,6.0,4.0,,5.0,5.0,2.0,4.0,5.0,3.0,,2.4,2.0,1.0,2.666667,3.666667,5.333333,5.333333,5.5
103750,897,2020-03-30 19:10:18,ZH-T,26,Male,PhD/Doctorate,Some College or equivalent,Student,United States,yes,Los Angeles,Single,0.0,No,Life carries on with minor changes,6.0,0.0,Program A,,,5.0,2.0,5.0,3.0,1.0,3.0,3.0,2.0,4.0,4.0,1.0,1.0,1.0,8.0,10.0,8.0,8.0,8.0,8.0,0.0,8.0,4.0,3.0,2.0,4.0,4.0,3.0,4.0,6.0,6.0,1.0,4.0,6.0,4.0,3.0,3.0,4.0,3.0,4.0,4.0,6.0,5.0,2.0,4.0,6.0,5.0,2.0,6.0,4.0,3.0,99.0,6.0,3.0,3.0,5.0,3.0,99.0,6.0,5.0,3.0,4.0,4.0,3.0,3.0,3.0,3.0,1.0,3.0,6.0,4.0,6.0,3.0,,5.0,4.0,4.0,3.0,4.0,4.0,4.0,4.0,4.0,4.0,4.0,3.0,4.0,4.0,5.0,5.0,1.0,1.0,1.0,5.0,4.0,4.0,5.0,4.0,5.0,4.0,,5.0,4.0,4.0,3.0,5.0,3.0,,3.8,1.0,3.666667,3.333333,5.0,5.0,5.333333,4.0
103755,664,2020-03-30 19:05:17,ZH-T,38,Female,PhD/Doctorate,College degree,Full time employed,United States,no,,Married/cohabiting,0.0,Not sure,Isolated,1.0,0.0,,Program D,Not sure,4.0,4.0,5.0,2.0,1.0,3.0,3.0,1.0,4.0,3.0,2.0,2.0,4.0,2.0,5.0,3.0,2.0,3.0,2.0,2.0,2.0,5.0,5.0,5.0,5.0,4.0,1.0,5.0,5.0,5.0,2.0,2.0,4.0,6.0,5.0,5.0,2.0,1.0,6.0,3.0,5.0,5.0,4.0,5.0,2.0,5.0,3.0,4.0,5.0,5.0,99.0,6.0,5.0,4.0,2.0,4.0,99.0,6.0,5.0,5.0,5.0,5.0,5.0,5.0,2.0,3.0,5.0,5.0,6.0,3.0,6.0,5.0,,4.0,4.0,3.0,3.0,4.0,3.0,4.0,4.0,2.0,4.0,5.0,4.0,5.0,2.0,2.0,5.0,2.0,2.0,5.0,4.0,5.0,4.0,4.0,5.0,2.0,5.0,,5.0,5.0,5.0,3.0,5.0,3.0,,4.0,2.666667,4.333333,1.333333,4.333333,3.333333,4.333333,3.5
103756,1036,2020-03-30 19:11:25,EN,26,Male,"College degree, bachelor, master",College degree,Full time employed,United States,no,CT,Married/cohabiting,0.0,Yes,Life carries on with minor changes,1.0,0.0,,Program D,No,4.0,3.0,4.0,4.0,3.0,3.0,3.0,4.0,5.0,3.0,3.0,3.0,5.0,5.0,9.0,3.0,3.0,7.0,3.0,9.0,3.0,4.0,6.0,4.0,6.0,6.0,0.0,5.0,5.0,6.0,5.0,3.0,4.0,5.0,3.0,4.0,4.0,4.0,3.0,6.0,6.0,6.0,3.0,4.0,4.0,5.0,4.0,5.0,4.0,5.0,99.0,6.0,4.0,5.0,99.0,1.0,99.0,6.0,6.0,5.0,4.0,6.0,6.0,6.0,4.0,5.0,6.0,3.0,4.0,4.0,6.0,6.0,,6.0,6.0,5.0,6.0,6.0,6.0,6.0,6.0,6.0,6.0,2.0,2.0,6.0,2.0,5.0,5.0,6.0,6.0,6.0,4.0,4.0,5.0,2.0,6.0,2.0,2.0,,2.0,6.0,6.0,4.0,6.0,5.0,,3.2,3.666667,3.666667,4.0,6.0,4.0,4.333333,5.9
103767,9224,2020-03-31 21:25:13,EN,49,Male,"College degree, bachelor, master",College degree,Full time employed,United States,no,California,Single,0.0,Yes,Isolated,2.0,0.0,,Program D,No,2.0,2.0,3.0,4.0,4.0,3.0,3.0,3.0,3.0,2.0,3.0,3.0,2.0,7.0,9.0,7.0,2.0,7.0,3.0,0.0,5.0,4.0,6.0,6.0,6.0,6.0,2.0,5.0,5.0,5.0,2.0,5.0,5.0,5.0,3.0,4.0,4.0,2.0,5.0,5.0,5.0,4.0,2.0,5.0,5.0,4.0,6.0,4.0,2.0,2.0,99.0,2.0,3.0,2.0,1.0,2.0,99.0,5.0,4.0,99.0,5.0,6.0,2.0,2.0,4.0,2.0,2.0,2.0,3.0,2.0,2.0,1.0,,5.0,5.0,5.0,5.0,5.0,5.0,5.0,5.0,4.0,5.0,3.0,3.0,5.0,2.0,4.0,2.0,2.0,2.0,5.0,5.0,5.0,5.0,5.0,5.0,1.0,4.0,,4.0,5.0,5.0,4.0,2.0,4.0,"I live in California so despite the increasing confirmed cases of COVID-19, life is still fairly clam, and we awaits our fate seeing what had happened in Italy and NYC.   I live in a democratic society with open elections.   Whatever the outcome, for better or worst, the burden in on all of us.",2.5,2.666667,3.666667,2.666667,4.666667,5.0,3.0,4.9
103768,863,2020-03-30 19:05:43,ZH-S,26,Female,PhD/Doctorate,Up to 12 years of school,Student,United States,yes,Tallahassee,Single,0.0,No,Life carries on with minor changes,1.0,0.0,,Program D,Yes,3.0,2.0,2.0,4.0,4.0,2.0,4.0,5.0,2.0,3.0,1.0,3.0,2.0,5.0,7.0,7.0,6.0,7.0,7.0,6.0,9.0,4.0,5.0,5.0,4.0,4.0,8.0,5.0,5.0,5.0,3.0,5.0,5.0,4.0,5.0,4.0,1.0,2.0,2.0,5.0,5.0,5.0,1.0,5.0,4.0,5.0,3.0,4.0,3.0,4.0,1.0,2.0,2.0,,1.0,4.0,1.0,2.0,5.0,5.0,1.0,5.0,4.0,4.0,2.0,1.0,2.0,2.0,5.0,2.0,3.0,1.0,,4.0,4.0,4.0,4.0,4.0,4.0,4.0,4.0,4.0,4.0,4.0,3.0,3.0,1.0,3.0,1.0,1.0,1.0,4.0,1.0,3.0,4.0,4.0,2.0,1.0,3.0,,5.0,2.0,2.0,5.0,2.0,5.0,,2.1,2.0,4.0,2.666667,5.0,5.0,4.333333,4.0
103769,854,2020-03-30 19:05:12,ZH-T,62,Other/would rather not say,PhD/Doctorate,Up to 12 years of school,Self-employed,United States,no,Illinois,Married/cohabiting,1.0,No,Life carries on with minor changes,,,Program B,,Not sure,2.0,2.0,3.0,4.0,4.0,2.0,3.0,3.0,1.0,1.0,1.0,1.0,1.0,7.0,8.0,3.0,7.0,5.0,7.0,0.0,4.0,6.0,3.0,3.0,6.0,6.0,3.0,3.0,5.0,5.0,1.0,3.0,4.0,1.0,1.0,5.0,4.0,5.0,1.0,4.0,5.0,4.0,3.0,4.0,5.0,4.0,3.0,4.0,2.0,4.0,1.0,2.0,4.0,1.0,1.0,5.0,99.0,5.0,4.0,5.0,2.0,6.0,1.0,5.0,1.0,1.0,5.0,2.0,6.0,1.0,5.0,2.0,,6.0,5.0,5.0,6.0,6.0,6.0,6.0,6.0,3.0,6.0,5.0,5.0,5.0,4.0,5.0,5.0,1.0,1.0,3.0,4.0,5.0,6.0,4.0,4.0,1.0,6.0,,5.0,5.0,6.0,2.0,2.0,4.0,<U+6211><U+5011><U+8981><U+5B78><U+7FD2><U+5982><U+4F55><U+9069><U+61C9><U+65B0><U+751F><U+6D3B>,2.1,1.0,1.333333,5.0,4.333333,4.333333,4.0,5.5
103780,848,2020-03-30 19:03:23,ZH-T,35,Female,PhD/Doctorate,Up to 12 years of school,Full time employed,United States,yes,<U+5FB7><U+5DDE>,Married/cohabiting,2.0,No,Isolated,2.0,2.0,,Program C,No,2.0,3.0,3.0,3.0,2.0,3.0,4.0,3.0,3.0,3.0,1.0,2.0,5.0,5.0,8.0,5.0,5.0,5.0,5.0,,4.0,4.0,4.0,5.0,5.0,6.0,3.0,4.0,5.0,6.0,2.0,4.0,6.0,4.0,6.0,5.0,5.0,5.0,2.0,5.0,4.0,5.0,1.0,6.0,6.0,4.0,2.0,4.0,5.0,5.0,6.0,5.0,6.0,5.0,1.0,3.0,5.0,6.0,99.0,5.0,5.0,5.0,5.0,6.0,4.0,3.0,6.0,5.0,6.0,4.0,6.0,5.0,,6.0,4.0,3.0,6.0,5.0,5.0,6.0,6.0,4.0,5.0,4.0,5.0,2.0,1.0,2.0,4.0,1.0,1.0,4.0,4.0,4.0,4.0,3.0,5.0,3.0,5.0,,3.0,5.0,6.0,3.0,6.0,2.0,Shelter in place order and low testing rate make me feel many uncertainty. I am afraid to going grocery shopping,2.9,2.666667,4.0,5.0,4.666667,6.0,4.333333,5.0
103783,2958,2020-03-30 19:37:50,ZH-T,32,Female,PhD/Doctorate,PhD/Doctorate,Full time employed,United States,yes,"Andover, Kansas",Married/cohabiting,0.0,No,Life carries on with minor changes,1.0,0.0,,Program D,Yes,4.0,3.0,4.0,3.0,3.0,4.0,3.0,2.0,2.0,2.0,2.0,3.0,3.0,5.0,7.0,5.0,7.0,6.0,5.0,6.0,4.0,6.0,6.0,6.0,6.0,4.0,0.0,5.0,6.0,6.0,5.0,4.0,6.0,5.0,5.0,5.0,5.0,6.0,3.0,3.0,5.0,4.0,4.0,5.0,4.0,4.0,2.0,5.0,4.0,5.0,99.0,2.0,4.0,6.0,99.0,1.0,99.0,6.0,3.0,4.0,2.0,6.0,5.0,5.0,1.0,4.0,5.0,5.0,6.0,1.0,6.0,6.0,,5.0,5.0,4.0,5.0,6.0,4.0,5.0,6.0,4.0,5.0,5.0,5.0,5.0,4.0,6.0,5.0,2.0,1.0,5.0,5.0,5.0,5.0,5.0,5.0,2.0,5.0,,5.0,5.0,5.0,5.0,5.0,5.0,,3.2,2.666667,4.0,5.0,4.0,4.0,4.666667,4.9
103792,2681,2020-03-31 19:31:43,EN,46,Female,Up to 12 years of school,Up to 12 years of school,Part time employed,United States,no,NY,Married/cohabiting,2.0,Yes,Isolated,4.0,1.0,Program A,,Yes,4.0,2.0,4.0,5.0,3.0,2.0,4.0,4.0,5.0,2.0,2.0,3.0,2.0,,,,,,,,,,,,,,,,,,,,,,,,,,,,,,,,,,,,,,,,,,,,,,,,,,,,,,,,,,,,,,,,,,,,,,,,,,,,,,,,,,,,,,,,,,,,,,,2.7,2.333333,,,,,,
103794,729,2020-03-30 18:58:52,EN,57,Female,"College degree, bachelor, master",Up to 9 years of school,Retired,United States,no,Virginia,Married/cohabiting,2.0,Yes,Isolated,3.0,0.0,Program A,,No,1.0,1.0,1.0,5.0,5.0,1.0,5.0,5.0,1.0,1.0,1.0,1.0,1.0,5.0,9.0,2.0,1.0,2.0,9.0,1.0,1.0,1.0,1.0,1.0,1.0,1.0,0.0,1.0,1.0,1.0,1.0,3.0,1.0,4.0,3.0,6.0,2.0,2.0,5.0,5.0,5.0,5.0,4.0,4.0,6.0,6.0,2.0,6.0,1.0,3.0,2.0,1.0,1.0,1.0,1.0,1.0,99.0,6.0,6.0,6.0,6.0,5.0,1.0,1.0,1.0,1.0,1.0,1.0,6.0,1.0,2.0,1.0,,1.0,1.0,1.0,1.0,1.0,1.0,1.0,1.0,1.0,1.0,4.0,1.0,5.0,1.0,1.0,5.0,1.0,1.0,4.0,2.0,5.0,5.0,5.0,6.0,1.0,4.0,,2.0,6.0,3.0,2.0,3.0,6.0,,1.0,1.0,2.666667,2.0,5.0,4.333333,5.666667,1.0
103804,1350,2020-03-30 19:06:54,EN,32,Female,"College degree, bachelor, master",College degree,Full time employed,United States,yes,Oregon,Married/cohabiting,0.0,Yes,Life carries on with minor changes,1.0,0.0,Program A,,Yes,4.0,3.0,5.0,4.0,3.0,3.0,4.0,3.0,2.0,3.0,2.0,2.0,3.0,8.0,9.0,5.0,7.0,6.0,8.0,0.0,2.0,4.0,6.0,4.0,6.0,6.0,0.0,6.0,6.0,6.0,1.0,3.0,5.0,5.0,4.0,5.0,3.0,4.0,3.0,4.0,6.0,5.0,4.0,5.0,6.0,4.0,5.0,6.0,2.0,6.0,99.0,3.0,5.0,4.0,1.0,1.0,99.0,6.0,4.0,5.0,5.0,5.0,2.0,2.0,2.0,4.0,5.0,5.0,6.0,1.0,6.0,5.0,,6.0,6.0,5.0,6.0,6.0,6.0,6.0,6.0,,6.0,2.0,6.0,6.0,6.0,5.0,4.0,4.0,2.0,5.0,5.0,4.0,5.0,5.0,4.0,2.0,4.0,,5.0,5.0,3.0,6.0,5.0,2.0,"1. Feeling anxious about anything coming from outside of our apartment - mail, groceries, clothes from work. 2. Not enough PPE at the healthcare facility I work at, though I am not the front-line person. 3. Unhappy about the decision that my favorite colleagues had to be laid off.",3.0,2.333333,3.666667,3.666667,5.0,4.666667,4.0,5.888889
103830,2012,2020-03-30 19:12:06,EN,41,Female,"College degree, bachelor, master",College degree,Not employed,United States,no,Ky,Married/cohabiting,4.0,No,Isolated,1.0,2.0,,Program D,No,3.0,4.0,3.0,4.0,3.0,2.0,3.0,4.0,3.0,3.0,1.0,1.0,3.0,7.0,8.0,9.0,8.0,9.0,8.0,10.0,6.0,3.0,5.0,6.0,6.0,6.0,3.0,1.0,6.0,6.0,4.0,2.0,6.0,4.0,2.0,6.0,5.0,5.0,2.0,5.0,5.0,5.0,1.0,5.0,6.0,5.0,2.0,5.0,5.0,2.0,6.0,6.0,6.0,5.0,2.0,5.0,5.0,6.0,5.0,5.0,6.0,6.0,2.0,2.0,2.0,2.0,2.0,5.0,5.0,5.0,6.0,5.0,,5.0,5.0,5.0,4.0,5.0,2.0,5.0,5.0,2.0,5.0,2.0,5.0,5.0,4.0,5.0,4.0,2.0,2.0,5.0,5.0,4.0,5.0,2.0,2.0,6.0,2.0,,5.0,4.0,5.0,5.0,5.0,2.0,,2.8,1.666667,2.333333,5.0,5.0,5.666667,5.0,4.3
103831,879,2020-03-30 18:53:07,LT,62,Female,"College degree, bachelor, master",Up to 12 years of school,Full time employed,United States,yes,New Mexico,Married/cohabiting,0.0,Yes,Life carries on with minor changes,1.0,0.0,Program A,,Not sure,3.0,2.0,1.0,4.0,4.0,1.0,4.0,4.0,1.0,1.0,2.0,2.0,3.0,7.0,10.0,5.0,8.0,7.0,8.0,8.0,5.0,6.0,6.0,6.0,6.0,6.0,5.0,5.0,6.0,6.0,1.0,5.0,5.0,4.0,2.0,5.0,2.0,3.0,5.0,5.0,6.0,5.0,1.0,5.0,5.0,4.0,2.0,5.0,2.0,2.0,2.0,2.0,2.0,2.0,2.0,2.0,2.0,5.0,2.0,5.0,3.0,4.0,2.0,2.0,2.0,2.0,2.0,2.0,2.0,2.0,2.0,5.0,,6.0,5.0,4.0,5.0,5.0,5.0,5.0,5.0,6.0,6.0,5.0,5.0,5.0,3.0,5.0,5.0,,1.0,5.0,5.0,5.0,5.0,3.0,5.0,1.0,3.0,,5.0,5.0,2.0,5.0,3.0,2.0,,1.7,2.333333,2.666667,2.333333,5.333333,5.333333,4.666667,5.2
103841,752,2020-03-30 18:48:49,EN,35,Female,"Some College, short continuing education or equivalent",PhD/Doctorate,Not employed,United States,no,Missouri,Divorced/widowed,2.0,Yes,Isolated,1.0,2.0,Program A,,No,3.0,4.0,3.0,3.0,4.0,2.0,3.0,3.0,3.0,3.0,3.0,3.0,3.0,10.0,10.0,0.0,2.0,6.0,0.0,8.0,0.0,5.0,6.0,5.0,6.0,6.0,0.0,,6.0,6.0,1.0,3.0,2.0,6.0,3.0,5.0,6.0,4.0,3.0,6.0,6.0,6.0,2.0,6.0,6.0,3.0,6.0,6.0,5.0,99.0,6.0,6.0,2.0,4.0,99.0,4.0,2.0,6.0,4.0,5.0,4.0,6.0,99.0,2.0,2.0,2.0,3.0,2.0,1.0,2.0,4.0,5.0,,6.0,6.0,5.0,6.0,6.0,5.0,6.0,6.0,5.0,5.0,2.0,2.0,5.0,2.0,2.0,2.0,5.0,6.0,6.0,4.0,2.0,2.0,2.0,5.0,1.0,2.0,,2.0,4.0,2.0,4.0,2.0,2.0,,2.9,3.0,3.666667,4.666667,6.0,5.666667,3.333333,5.6
103858,898,2020-03-30 18:47:02,ZH-T,32,Male,PhD/Doctorate,Some College or equivalent,Student,United States,yes,Florida,Single,0.0,No,Life carries on as usual,0.0,0.0,Program A,,No,2.0,1.0,1.0,3.0,3.0,1.0,4.0,3.0,1.0,2.0,2.0,1.0,2.0,8.0,8.0,6.0,6.0,7.0,7.0,1.0,7.0,4.0,4.0,4.0,5.0,5.0,6.0,5.0,5.0,5.0,2.0,5.0,5.0,3.0,4.0,4.0,4.0,4.0,3.0,4.0,4.0,4.0,2.0,4.0,4.0,4.0,3.0,4.0,4.0,3.0,3.0,6.0,6.0,3.0,3.0,3.0,3.0,4.0,4.0,4.0,3.0,4.0,6.0,6.0,3.0,3.0,3.0,3.0,5.0,4.0,4.0,3.0,,4.0,4.0,4.0,3.0,3.0,4.0,4.0,4.0,4.0,4.0,4.0,2.0,4.0,3.0,4.0,4.0,3.0,3.0,4.0,4.0,4.0,4.0,4.0,4.0,3.0,4.0,,5.0,4.0,5.0,4.0,5.0,3.0,,1.9,1.666667,3.333333,4.0,4.0,4.333333,4.0,3.8
103865,1088,2020-03-30 18:48:20,EN,41,Female,"College degree, bachelor, master",Some College or equivalent,Full time employed,United States,no,Michigan,Single,0.0,Yes,Isolated,3.0,5.0,Program B,,No,2.0,2.0,3.0,3.0,3.0,2.0,3.0,3.0,2.0,2.0,3.0,4.0,3.0,6.0,9.0,6.0,9.0,7.0,9.0,10.0,7.0,5.0,6.0,5.0,5.0,4.0,4.0,6.0,5.0,6.0,2.0,4.0,4.0,2.0,3.0,3.0,5.0,3.0,4.0,5.0,6.0,4.0,2.0,5.0,5.0,5.0,3.0,6.0,2.0,2.0,99.0,99.0,4.0,2.0,2.0,4.0,3.0,4.0,2.0,5.0,5.0,5.0,6.0,5.0,4.0,4.0,1.0,2.0,4.0,1.0,2.0,99.0,,5.0,4.0,5.0,5.0,6.0,6.0,6.0,5.0,5.0,5.0,3.0,5.0,6.0,5.0,6.0,5.0,1.0,1.0,3.0,4.0,4.0,5.0,4.0,5.0,6.0,4.0,,5.0,3.0,4.0,5.0,5.0,4.0,,2.5,3.333333,3.0,3.666667,5.0,5.0,5.0,5.2
103868,939,2020-03-30 18:43:20,LT,46,Female,"Some College, short continuing education or equivalent",Up to 12 years of school,Full time employed,United States,no,Illinois,Married/cohabiting,4.0,No,Life carries on with minor changes,2.0,0.0,,Program D,No,1.0,3.0,1.0,5.0,3.0,1.0,5.0,5.0,1.0,2.0,1.0,1.0,1.0,5.0,10.0,5.0,8.0,8.0,4.0,6.0,3.0,5.0,5.0,5.0,2.0,3.0,,5.0,5.0,6.0,2.0,5.0,5.0,4.0,1.0,5.0,5.0,5.0,5.0,5.0,5.0,5.0,2.0,6.0,5.0,4.0,3.0,5.0,4.0,2.0,5.0,4.0,2.0,4.0,3.0,99.0,99.0,5.0,2.0,5.0,2.0,3.0,2.0,5.0,2.0,2.0,3.0,2.0,2.0,4.0,3.0,2.0,,5.0,5.0,5.0,5.0,5.0,5.0,5.0,5.0,5.0,5.0,4.0,5.0,3.0,5.0,4.0,4.0,1.0,2.0,4.0,6.0,5.0,4.0,5.0,5.0,5.0,5.0,,5.0,5.0,4.0,5.0,4.0,2.0,,1.5,1.0,2.333333,4.0,5.0,5.333333,4.333333,5.0
103876,569,2020-03-30 18:35:45,EN,29,Female,"College degree, bachelor, master",Up to 12 years of school,Full time employed,United States,no,Virginia,Married/cohabiting,1.0,Yes,Life carries on with minor changes,1.0,0.0,,Program D,No,3.0,2.0,4.0,4.0,4.0,3.0,4.0,4.0,3.0,2.0,2.0,3.0,2.0,5.0,7.0,4.0,5.0,5.0,7.0,6.0,5.0,5.0,5.0,5.0,5.0,5.0,5.0,5.0,5.0,5.0,6.0,1.0,4.0,4.0,3.0,3.0,4.0,4.0,4.0,4.0,2.0,1.0,3.0,4.0,4.0,5.0,1.0,5.0,99.0,99.0,3.0,2.0,6.0,3.0,99.0,4.0,99.0,5.0,4.0,6.0,6.0,5.0,5.0,4.0,2.0,4.0,4.0,5.0,5.0,1.0,6.0,2.0,How others In my community are suffering from this,4.0,4.0,4.0,4.0,5.0,5.0,5.0,5.0,5.0,5.0,4.0,4.0,4.0,4.0,4.0,3.0,2.0,1.0,4.0,4.0,4.0,4.0,4.0,4.0,1.0,4.0,,4.0,2.0,4.0,3.0,4.0,3.0,,2.5,2.333333,3.666667,3.666667,2.333333,4.0,5.333333,4.6
103892,497,2020-03-30 18:31:24,ZH-T,25,Female,"College degree, bachelor, master",Some College or equivalent,Full time employed,United States,yes,<U+83EF><U+76DB><U+9813><U+7279><U+5340>,Single,0.0,Yes,Isolated,3.0,0.0,,Program C,Yes,4.0,2.0,2.0,4.0,3.0,2.0,4.0,3.0,4.0,2.0,2.0,2.0,1.0,5.0,8.0,8.0,5.0,8.0,3.0,1.0,5.0,4.0,4.0,5.0,6.0,6.0,4.0,6.0,6.0,6.0,5.0,2.0,5.0,4.0,2.0,5.0,6.0,6.0,2.0,5.0,6.0,5.0,1.0,6.0,6.0,3.0,2.0,6.0,1.0,1.0,99.0,1.0,5.0,6.0,1.0,6.0,99.0,6.0,6.0,6.0,6.0,5.0,99.0,6.0,6.0,2.0,6.0,6.0,6.0,4.0,6.0,5.0,,6.0,6.0,5.0,6.0,5.0,6.0,6.0,6.0,5.0,5.0,6.0,5.0,5.0,6.0,6.0,5.0,1.0,1.0,6.0,6.0,6.0,6.0,2.0,6.0,1.0,6.0,,5.0,1.0,5.0,6.0,5.0,1.0,,2.6,1.666667,2.666667,5.666667,5.333333,6.0,4.666667,5.6
103903,662,2020-03-30 18:30:24,EN,38,Female,"College degree, bachelor, master",Some College or equivalent,Full time employed,United States,no,Michigan,Married/cohabiting,1.0,No,Life carries on with minor changes,1.0,1.0,,Program D,No,3.0,3.0,4.0,3.0,3.0,4.0,4.0,2.0,3.0,3.0,4.0,2.0,3.0,7.0,8.0,4.0,8.0,8.0,8.0,8.0,4.0,5.0,5.0,5.0,5.0,5.0,0.0,5.0,5.0,5.0,2.0,2.0,2.0,5.0,3.0,5.0,3.0,2.0,5.0,4.0,5.0,3.0,2.0,5.0,5.0,3.0,4.0,5.0,6.0,5.0,2.0,5.0,4.0,3.0,2.0,4.0,2.0,5.0,3.0,4.0,4.0,4.0,2.0,3.0,2.0,2.0,2.0,2.0,5.0,2.0,5.0,2.0,,5.0,5.0,5.0,4.0,2.0,5.0,4.0,4.0,4.0,5.0,2.0,4.0,5.0,4.0,5.0,4.0,2.0,2.0,5.0,4.0,4.0,3.0,3.0,4.0,2.0,4.0,,4.0,5.0,5.0,5.0,4.0,2.0,,3.2,3.0,3.333333,2.333333,4.0,5.0,3.666667,4.3
103905,874,2020-03-30 18:33:23,KO,40,Male,PhD/Doctorate,Up to 12 years of school,Full time employed,United States,yes,Midland,Married/cohabiting,1.0,Yes,Life carries on with minor changes,0.0,,,Program D,No,4.0,3.0,3.0,3.0,3.0,4.0,4.0,2.0,4.0,4.0,1.0,3.0,4.0,5.0,5.0,6.0,5.0,7.0,8.0,5.0,9.0,4.0,5.0,5.0,5.0,5.0,5.0,5.0,6.0,6.0,4.0,4.0,4.0,5.0,4.0,3.0,4.0,3.0,4.0,4.0,3.0,6.0,4.0,3.0,3.0,5.0,3.0,3.0,4.0,3.0,1.0,5.0,5.0,3.0,1.0,2.0,2.0,5.0,4.0,5.0,2.0,5.0,4.0,3.0,2.0,3.0,2.0,2.0,5.0,2.0,4.0,4.0,,5.0,3.0,3.0,6.0,5.0,4.0,4.0,5.0,3.0,5.0,4.0,5.0,5.0,1.0,4.0,2.0,3.0,2.0,4.0,2.0,2.0,2.0,3.0,4.0,1.0,3.0,,3.0,4.0,4.0,3.0,1.0,4.0,,3.4,2.666667,4.333333,3.333333,4.333333,3.0,4.0,4.3
103914,571,2020-03-30 18:25:56,EN,39,Male,"College degree, bachelor, master",Up to 12 years of school,Full time employed,United States,no,Texas,Divorced/widowed,0.0,Yes,Life carries on with minor changes,0.0,0.0,,Program D,No,5.0,3.0,4.0,3.0,2.0,4.0,3.0,2.0,3.0,3.0,4.0,3.0,4.0,6.0,9.0,3.0,6.0,6.0,8.0,8.0,2.0,4.0,4.0,4.0,5.0,5.0,2.0,5.0,5.0,4.0,2.0,3.0,3.0,4.0,3.0,5.0,4.0,5.0,3.0,4.0,5.0,4.0,4.0,4.0,5.0,4.0,4.0,5.0,6.0,5.0,99.0,6.0,3.0,3.0,99.0,99.0,99.0,5.0,4.0,5.0,6.0,4.0,99.0,3.0,2.0,6.0,2.0,99.0,2.0,2.0,6.0,99.0,,5.0,5.0,5.0,5.0,5.0,5.0,5.0,5.0,5.0,5.0,4.0,4.0,4.0,3.0,4.0,4.0,5.0,5.0,4.0,3.0,4.0,5.0,3.0,4.0,4.0,4.0,,4.0,4.0,4.0,4.0,3.0,3.0,,3.6,3.666667,3.0,4.333333,4.333333,4.0,4.0,5.0
103915,844,2020-03-30 18:30:10,ZH-T,33,Female,PhD/Doctorate,College degree,Student,United States,yes,West Lafayette,Single,0.0,Yes,Life carries on with minor changes,2.0,0.0,,Program C,Yes,3.0,1.0,4.0,4.0,4.0,2.0,1.0,4.0,1.0,3.0,2.0,2.0,1.0,7.0,5.0,7.0,5.0,4.0,4.0,,9.0,5.0,4.0,2.0,4.0,2.0,6.0,4.0,6.0,6.0,4.0,5.0,6.0,5.0,6.0,4.0,4.0,4.0,4.0,5.0,4.0,4.0,1.0,4.0,6.0,5.0,4.0,5.0,3.0,3.0,2.0,4.0,5.0,1.0,1.0,5.0,1.0,6.0,4.0,6.0,6.0,6.0,3.0,1.0,5.0,3.0,1.0,4.0,5.0,5.0,3.0,4.0,,2.0,1.0,2.0,4.0,4.0,4.0,2.0,4.0,5.0,2.0,4.0,4.0,6.0,1.0,4.0,6.0,2.0,2.0,5.0,5.0,6.0,5.0,6.0,6.0,4.0,5.0,,6.0,5.0,5.0,6.0,6.0,5.0,,2.5,1.666667,4.666667,3.666667,4.333333,5.333333,4.333333,3.0
103930,1729,2020-03-30 18:39:19,EN,51,Female,"College degree, bachelor, master",Some College or equivalent,Self-employed,United States,no,Washington,Married/cohabiting,1.0,Yes,Life carries on with minor changes,2.0,0.0,Program A,,Yes,2.0,2.0,2.0,5.0,4.0,1.0,5.0,4.0,2.0,1.0,2.0,2.0,2.0,7.0,9.0,7.0,8.0,4.0,8.0,3.0,7.0,5.0,6.0,5.0,5.0,4.0,5.0,5.0,4.0,4.0,2.0,4.0,3.0,4.0,2.0,5.0,5.0,3.0,4.0,5.0,6.0,5.0,3.0,4.0,5.0,5.0,2.0,5.0,3.0,3.0,99.0,3.0,4.0,4.0,5.0,3.0,99.0,5.0,3.0,3.0,3.0,3.0,2.0,2.0,2.0,3.0,4.0,2.0,3.0,2.0,4.0,99.0,,4.0,5.0,4.0,5.0,5.0,5.0,4.0,5.0,5.0,4.0,4.0,4.0,5.0,4.0,4.0,4.0,4.0,4.0,5.0,4.0,3.0,4.0,5.0,5.0,5.0,4.0,,4.0,2.0,2.0,2.0,3.0,2.0,Im concerned with economic recovery after my country has a handle on controlling the Coronavirus. I wonder how my kids and future grandchildren will be able to pay off the national debt.,1.6,2.0,2.666667,3.666667,5.333333,4.333333,5.0,4.6
103944,592,2020-03-31 18:16:49,EN,29,Female,"College degree, bachelor, master",College degree,Retired,United States,no,Colorado,Married/cohabiting,0.0,Yes,Life carries on with minor changes,1.0,0.0,,Program C,No,4.0,4.0,5.0,3.0,3.0,2.0,4.0,3.0,3.0,2.0,1.0,1.0,1.0,5.0,9.0,5.0,6.0,7.0,8.0,7.0,5.0,6.0,6.0,6.0,6.0,6.0,4.0,6.0,6.0,6.0,1.0,4.0,2.0,5.0,4.0,3.0,5.0,5.0,2.0,3.0,4.0,3.0,2.0,5.0,5.0,3.0,2.0,5.0,4.0,99.0,99.0,5.0,4.0,2.0,1.0,4.0,99.0,5.0,4.0,6.0,6.0,6.0,99.0,2.0,4.0,2.0,4.0,6.0,3.0,2.0,5.0,6.0,,6.0,6.0,6.0,6.0,6.0,6.0,6.0,6.0,6.0,6.0,4.0,6.0,6.0,1.0,4.0,4.0,4.0,5.0,5.0,4.0,5.0,6.0,5.0,5.0,2.0,6.0,,6.0,6.0,6.0,6.0,4.0,3.0,,3.1,1.0,4.333333,5.0,3.333333,5.0,4.333333,6.0
103956,1438,2020-03-30 18:25:52,EN,53,Female,"College degree, bachelor, master",College degree,Self-employed,United States,no,Georgia,Married/cohabiting,2.0,Yes,Isolated,4.0,0.0,Program A,,No,2.0,2.0,3.0,5.0,5.0,2.0,4.0,5.0,2.0,1.0,3.0,2.0,3.0,7.0,9.0,5.0,6.0,7.0,5.0,9.0,4.0,5.0,5.0,4.0,6.0,6.0,1.0,6.0,6.0,6.0,2.0,2.0,4.0,4.0,3.0,5.0,6.0,6.0,3.0,6.0,6.0,3.0,2.0,5.0,6.0,5.0,3.0,6.0,3.0,5.0,5.0,5.0,3.0,2.0,5.0,3.0,99.0,6.0,3.0,4.0,4.0,6.0,2.0,4.0,2.0,4.0,4.0,3.0,3.0,2.0,4.0,4.0,,6.0,6.0,6.0,6.0,6.0,6.0,6.0,6.0,6.0,6.0,5.0,2.0,6.0,2.0,5.0,5.0,2.0,2.0,5.0,5.0,4.0,4.0,5.0,5.0,6.0,5.0,,3.0,3.0,4.0,5.0,3.0,4.0,Trump is a terrible and disgraceful leader| I am disgusted with him and his team.,1.7,2.666667,3.0,5.333333,5.0,5.333333,5.0,6.0
103964,752,2020-03-30 18:12:24,EN,33,Female,"College degree, bachelor, master",Some College or equivalent,Full time employed,United States,no,WI,Married/cohabiting,0.0,Yes,Life carries on with minor changes,1.0,0.0,Program A,,No,1.0,1.0,2.0,5.0,5.0,1.0,5.0,5.0,1.0,1.0,1.0,1.0,1.0,7.0,9.0,1.0,8.0,6.0,6.0,7.0,5.0,3.0,3.0,3.0,4.0,4.0,4.0,6.0,5.0,4.0,1.0,3.0,4.0,5.0,5.0,3.0,1.0,1.0,6.0,6.0,5.0,6.0,5.0,3.0,4.0,6.0,2.0,6.0,1.0,1.0,99.0,1.0,2.0,1.0,99.0,2.0,99.0,4.0,1.0,3.0,4.0,4.0,1.0,1.0,1.0,1.0,1.0,5.0,2.0,1.0,4.0,1.0,,6.0,6.0,6.0,6.0,6.0,6.0,6.0,6.0,6.0,6.0,4.0,1.0,4.0,1.0,1.0,2.0,1.0,1.0,1.0,4.0,5.0,4.0,4.0,5.0,6.0,4.0,"Exercising more, walking outside every day",2.0,4.0,4.0,4.0,2.0,4.0,"This has given me time for ME. My life was too busy before. I finally have space to get enough sleep, work out, get outside, be creative, and do what I want to do....I'm introverted, so I don't mind not seeing people other than my husband. I've been thriving in this time immensely.",1.1,1.0,4.666667,1.0,5.666667,3.0,5.666667,6.0
103967,1064,2020-03-30 18:16:13,ZH-T,29,Female,PhD/Doctorate,PhD/Doctorate,Full time employed,United States,no,Ohio,Single,0.0,No,Life carries on with minor changes,0.0,0.0,,Program D,No,2.0,2.0,3.0,4.0,4.0,1.0,5.0,4.0,1.0,1.0,2.0,1.0,3.0,7.0,7.0,7.0,7.0,7.0,7.0,3.0,6.0,4.0,4.0,4.0,5.0,5.0,3.0,5.0,6.0,6.0,4.0,5.0,5.0,4.0,3.0,5.0,4.0,4.0,3.0,5.0,5.0,5.0,2.0,5.0,5.0,4.0,2.0,5.0,2.0,3.0,99.0,4.0,4.0,4.0,3.0,2.0,99.0,4.0,5.0,4.0,3.0,5.0,2.0,2.0,3.0,4.0,4.0,4.0,5.0,4.0,4.0,4.0,,6.0,5.0,5.0,6.0,6.0,5.0,6.0,6.0,5.0,5.0,5.0,5.0,6.0,3.0,5.0,4.0,3.0,3.0,4.0,5.0,5.0,5.0,5.0,5.0,5.0,5.0,,4.0,4.0,3.0,4.0,5.0,2.0,,1.7,2.0,3.0,4.0,5.0,5.0,4.666667,5.5
103980,696,2020-03-30 18:06:24,EN,46,Female,"College degree, bachelor, master",College degree,Full time employed,United States,no,New York,Married/cohabiting,2.0,Yes,Isolated,1.0,2.0,,Program D,Yes,3.0,3.0,3.0,4.0,3.0,3.0,4.0,3.0,3.0,2.0,3.0,3.0,3.0,7.0,9.0,3.0,5.0,8.0,1.0,4.0,3.0,3.0,4.0,3.0,6.0,6.0,3.0,6.0,5.0,4.0,3.0,2.0,3.0,4.0,4.0,3.0,5.0,5.0,4.0,4.0,6.0,4.0,4.0,4.0,4.0,4.0,4.0,5.0,3.0,6.0,4.0,4.0,4.0,5.0,99.0,3.0,3.0,5.0,4.0,4.0,3.0,4.0,5.0,5.0,3.0,5.0,6.0,4.0,4.0,3.0,6.0,3.0,,5.0,5.0,5.0,4.0,5.0,5.0,5.0,5.0,5.0,5.0,3.0,5.0,6.0,5.0,5.0,4.0,2.0,2.0,5.0,4.0,3.0,4.0,5.0,5.0,2.0,3.0,,4.0,5.0,4.0,5.0,,2.0,,2.7,3.0,4.0,4.333333,4.666667,3.666667,4.0,4.9
103984,960,2020-03-30 18:10:13,EN,38,Male,"Some College, short continuing education or equivalent",Some College or equivalent,Full time employed,United States,no,Virginia,Married/cohabiting,0.0,Yes,Isolated,1.0,0.0,Program A,,No,2.0,1.0,4.0,4.0,2.0,2.0,5.0,3.0,4.0,2.0,1.0,1.0,1.0,7.0,9.0,1.0,1.0,9.0,3.0,9.0,0.0,4.0,6.0,5.0,5.0,5.0,0.0,2.0,4.0,5.0,1.0,2.0,4.0,5.0,5.0,5.0,4.0,2.0,6.0,4.0,6.0,5.0,3.0,5.0,5.0,4.0,5.0,4.0,6.0,1.0,99.0,6.0,5.0,1.0,1.0,3.0,99.0,4.0,5.0,6.0,6.0,5.0,1.0,1.0,2.0,2.0,1.0,5.0,2.0,4.0,5.0,1.0,,6.0,6.0,6.0,6.0,6.0,5.0,6.0,6.0,4.0,5.0,1.0,4.0,4.0,2.0,3.0,1.0,6.0,5.0,5.0,4.0,2.0,1.0,5.0,6.0,2.0,2.0,,2.0,2.0,2.0,2.0,2.0,2.0,,2.5,1.0,4.0,2.333333,5.0,4.666667,3.333333,5.6
103988,132,2020-03-31 17:55:47,ZH-T,26,Female,PhD/Doctorate,Some College or equivalent,Student,United States,yes,Texas,Single,0.0,No,Isolated,0.0,0.0,,Program D,,,,,,,,,,,,,,,,,,,,,,,,,,,,,,,,,,,,,,,,,,,,,,,,,,,,,,,,,,,,,,,,,,,,,,,,,,,,,,,,,,,,,,,,,,,,,,,,,,,,,,,,,,,,,,,,,,,,
103992,601,2020-03-30 18:02:42,ZH-T,29,Male,PhD/Doctorate,Some College or equivalent,Full time employed,United States,yes,"Allegheny County, PA",Single,0.0,Yes,Isolated,0.0,0.0,Program A,,No,4.0,2.0,3.0,4.0,4.0,2.0,5.0,4.0,2.0,2.0,3.0,2.0,2.0,3.0,8.0,7.0,4.0,8.0,4.0,,2.0,5.0,6.0,6.0,4.0,2.0,0.0,4.0,6.0,6.0,2.0,1.0,5.0,5.0,6.0,5.0,2.0,2.0,6.0,2.0,5.0,4.0,1.0,3.0,4.0,6.0,5.0,5.0,4.0,5.0,99.0,99.0,5.0,1.0,99.0,99.0,99.0,6.0,5.0,6.0,6.0,5.0,2.0,1.0,4.0,1.0,1.0,99.0,6.0,5.0,5.0,4.0,,1.0,1.0,4.0,1.0,2.0,3.0,1.0,5.0,2.0,1.0,5.0,5.0,6.0,3.0,3.0,6.0,6.0,6.0,6.0,3.0,5.0,5.0,5.0,6.0,1.0,6.0,,5.0,6.0,6.0,1.0,6.0,1.0,"<U+91AB><U+7642><U+8CC7><U+6E90><U+53D7><U+5230><U+6392><U+64E0>,<U+5C31><U+7B97><U+751F><U+6D3B><U+4E2D><U+6709><U+9EDE><U+4E0D><U+8212><U+670D><U+4E5F><U+4E0D><U+592A><U+6562><U+53BB><U+770B><U+91AB><U+751F>,<U+6240><U+4EE5><U+611F><U+5192><U+6BD4><U+4E4B><U+524D><U+62D6><U+9577><U+4E86>50%",2.2,2.333333,4.333333,1.666667,3.666667,4.333333,4.333333,2.1
103997,2986,2020-03-30 18:41:56,EN,25,Female,"Some College, short continuing education or equivalent",College degree,Part time employed,United States,no,Va,Single,0.0,Yes,Isolated,3.0,1.0,,Program D,No,2.0,5.0,5.0,2.0,2.0,4.0,3.0,1.0,3.0,4.0,4.0,3.0,5.0,2.0,7.0,0.0,,0.0,,5.0,,3.0,6.0,5.0,5.0,5.0,0.0,4.0,2.0,2.0,4.0,1.0,2.0,5.0,5.0,4.0,6.0,3.0,4.0,4.0,5.0,5.0,5.0,6.0,4.0,2.0,6.0,2.0,6.0,3.0,99.0,6.0,5.0,6.0,99.0,6.0,5.0,3.0,5.0,5.0,5.0,3.0,4.0,3.0,5.0,5.0,5.0,6.0,5.0,4.0,5.0,2.0,,6.0,4.0,5.0,5.0,5.0,5.0,6.0,5.0,3.0,6.0,2.0,2.0,5.0,2.0,4.0,4.0,5.0,4.0,5.0,5.0,4.0,2.0,2.0,3.0,2.0,4.0,,2.0,5.0,3.0,4.0,5.0,1.0,,3.9,4.0,4.333333,4.0,4.666667,4.0,1.666667,5.0
103998,609,2020-03-30 18:02:07,ZH-T,28,Female,PhD/Doctorate,Some College or equivalent,Full time employed,United States,yes,Wisconsin,Single,0.0,No,Life carries on with minor changes,0.0,0.0,,Program D,,3.0,3.0,5.0,4.0,3.0,1.0,3.0,2.0,1.0,3.0,4.0,4.0,2.0,3.0,8.0,3.0,3.0,3.0,2.0,0.0,2.0,3.0,5.0,6.0,6.0,6.0,0.0,2.0,6.0,5.0,4.0,2.0,5.0,5.0,3.0,4.0,6.0,3.0,3.0,5.0,6.0,4.0,3.0,4.0,4.0,3.0,4.0,4.0,4.0,3.0,99.0,6.0,3.0,4.0,99.0,5.0,99.0,5.0,4.0,6.0,5.0,6.0,6.0,3.0,3.0,4.0,3.0,6.0,6.0,4.0,3.0,3.0,,5.0,5.0,6.0,4.0,5.0,4.0,5.0,6.0,3.0,4.0,5.0,6.0,6.0,2.0,4.0,2.0,4.0,1.0,6.0,3.0,3.0,2.0,6.0,5.0,1.0,5.0,,6.0,3.0,3.0,4.0,2.0,1.0,,2.8,3.333333,3.666667,4.333333,5.0,4.0,3.333333,4.7
103999,950,2020-03-30 18:07:34,EN,36,Male,"Some College, short continuing education or equivalent",Up to 12 years of school,Not employed,United States,no,Virginia,Married/cohabiting,0.0,Yes,Isolated,1.0,0.0,Program A,,No,4.0,5.0,5.0,3.0,3.0,5.0,2.0,2.0,5.0,5.0,3.0,3.0,4.0,4.0,6.0,0.0,0.0,0.0,0.0,3.0,0.0,4.0,5.0,5.0,5.0,5.0,0.0,5.0,5.0,5.0,4.0,1.0,1.0,6.0,6.0,5.0,4.0,2.0,4.0,4.0,6.0,5.0,2.0,5.0,6.0,3.0,2.0,5.0,6.0,6.0,99.0,6.0,5.0,3.0,99.0,2.0,99.0,1.0,6.0,6.0,6.0,5.0,99.0,99.0,99.0,5.0,2.0,5.0,5.0,3.0,5.0,99.0,,6.0,4.0,6.0,3.0,2.0,3.0,5.0,4.0,3.0,4.0,3.0,2.0,4.0,2.0,3.0,5.0,3.0,1.0,2.0,6.0,5.0,2.0,3.0,4.0,1.0,5.0,,4.0,4.0,4.0,5.0,5.0,1.0,,4.3,3.333333,4.666667,3.0,5.0,5.333333,4.333333,4.0
104002,1221,2020-03-31 18:12:25,EN,59,Female,,Up to 9 years of school,Retired,United States,no,Virginia,Divorced/widowed,0.0,Yes,,0.0,0.0,,Program D,No,4.0,5.0,4.0,3.0,5.0,3.0,3.0,4.0,4.0,2.0,5.0,3.0,3.0,7.0,10.0,0.0,0.0,0.0,0.0,0.0,0.0,4.0,6.0,6.0,5.0,5.0,1.0,6.0,5.0,5.0,4.0,4.0,1.0,4.0,2.0,4.0,3.0,4.0,4.0,6.0,6.0,5.0,4.0,6.0,5.0,5.0,1.0,5.0,4.0,4.0,5.0,3.0,6.0,4.0,2.0,2.0,99.0,6.0,4.0,5.0,6.0,1.0,4.0,4.0,2.0,4.0,4.0,3.0,5.0,2.0,4.0,2.0,,6.0,6.0,6.0,6.0,6.0,6.0,6.0,6.0,6.0,6.0,1.0,5.0,6.0,4.0,4.0,6.0,1.0,2.0,5.0,6.0,6.0,1.0,6.0,6.0,1.0,1.0,,1.0,6.0,4.0,,6.0,4.0,,3.1,3.666667,3.0,3.333333,5.666667,4.666667,5.333333,6.0
104034,1313,2020-03-30 18:06:49,LT,49,Female,"College degree, bachelor, master",Up to 12 years of school,Self-employed,United States,no,OSWEGO Ilinojus,Married/cohabiting,2.0,Yes,Isolated,1.0,0.0,Program B,,Yes,3.0,3.0,2.0,4.0,3.0,2.0,5.0,5.0,2.0,2.0,2.0,1.0,3.0,8.0,10.0,2.0,2.0,2.0,2.0,0.0,1.0,5.0,5.0,5.0,5.0,5.0,0.0,5.0,5.0,5.0,2.0,3.0,5.0,2.0,2.0,4.0,4.0,4.0,5.0,4.0,5.0,3.0,2.0,4.0,4.0,4.0,2.0,5.0,4.0,2.0,2.0,4.0,3.0,2.0,2.0,2.0,2.0,5.0,2.0,4.0,5.0,5.0,2.0,2.0,2.0,2.0,2.0,2.0,2.0,2.0,3.0,4.0,,5.0,5.0,5.0,5.0,5.0,5.0,5.0,5.0,5.0,5.0,4.0,4.0,4.0,3.0,4.0,4.0,5.0,4.0,5.0,4.0,4.0,3.0,4.0,5.0,3.0,4.0,,4.0,4.0,3.0,3.0,4.0,3.0,,2.1,2.0,2.333333,3.333333,4.0,4.333333,4.666667,5.0
104036,478,2020-03-31 17:52:15,EN,32,Male,"College degree, bachelor, master",College degree,Self-employed,United States,no,Virginia,Married/cohabiting,1.0,Yes,Isolated,1.0,1.0,,,,,,,,,,,,,,,,,,,,,,,,,,,,,,,,,,,,,,,,,,,,,,,,,,,,,,,,,,,,,,,,,,,,,,,,,,,,,,,,,,,,,,,,,,,,,,,,,,,,,,,,,,,,,,,,,,,,,,
104040,595,2020-03-31 17:52:23,EN,43,Female,"College degree, bachelor, master",PhD/Doctorate,Full time employed,United States,yes,Il,Married/cohabiting,2.0,Yes,Life carries on as usual,1.0,2.0,Program B,,Not sure,2.0,2.0,3.0,5.0,5.0,2.0,5.0,2.0,2.0,2.0,2.0,2.0,2.0,7.0,9.0,7.0,7.0,,,,,6.0,6.0,,6.0,6.0,4.0,6.0,6.0,6.0,6.0,4.0,5.0,6.0,4.0,5.0,5.0,,2.0,4.0,5.0,2.0,2.0,6.0,6.0,4.0,2.0,6.0,4.0,5.0,4.0,5.0,4.0,5.0,5.0,4.0,5.0,4.0,6.0,5.0,4.0,5.0,4.0,5.0,99.0,4.0,4.0,99.0,5.0,4.0,4.0,5.0,,,,,,,,,,,,,,,,,,,,,,,,,,,,,,,,,,,,2.0,2.0,4.0,5.0,3.666667,5.666667,5.0,
104041,1166,2020-03-30 18:01:20,LT,45,Female,"College degree, bachelor, master",College degree,Not employed,United States,yes,Indiana,Married/cohabiting,3.0,No,Isolated,3.0,2.0,Program A,,No,5.0,3.0,4.0,4.0,3.0,3.0,3.0,4.0,4.0,4.0,3.0,2.0,4.0,7.0,8.0,3.0,6.0,3.0,5.0,6.0,2.0,5.0,5.0,5.0,5.0,5.0,2.0,5.0,5.0,5.0,2.0,2.0,5.0,4.0,3.0,4.0,4.0,3.0,4.0,4.0,5.0,4.0,2.0,5.0,5.0,5.0,3.0,5.0,5.0,5.0,3.0,5.0,4.0,3.0,2.0,2.0,2.0,6.0,3.0,4.0,4.0,5.0,4.0,2.0,2.0,2.0,2.0,2.0,5.0,5.0,5.0,3.0,,4.0,5.0,2.0,5.0,5.0,5.0,5.0,5.0,4.0,4.0,2.0,5.0,5.0,2.0,2.0,4.0,3.0,2.0,5.0,4.0,3.0,5.0,3.0,5.0,2.0,2.0,,5.0,3.0,3.0,3.0,3.0,3.0,,3.3,3.0,3.333333,3.333333,4.333333,5.0,4.666667,4.4
104053,785,2020-03-31 17:49:42,EN,58,Female,"Some College, short continuing education or equivalent",College degree,Full time employed,United States,no,VA,Married/cohabiting,0.0,Yes,Isolated,0.0,0.0,Program A,,No,3.0,2.0,3.0,5.0,4.0,2.0,4.0,5.0,3.0,2.0,3.0,2.0,3.0,4.0,7.0,1.0,1.0,3.0,1.0,3.0,0.0,6.0,6.0,6.0,6.0,6.0,0.0,6.0,6.0,6.0,1.0,4.0,3.0,5.0,3.0,5.0,3.0,2.0,4.0,4.0,6.0,3.0,4.0,5.0,5.0,6.0,1.0,5.0,4.0,4.0,99.0,99.0,2.0,3.0,2.0,99.0,99.0,5.0,4.0,5.0,6.0,6.0,3.0,2.0,2.0,2.0,99.0,2.0,6.0,2.0,5.0,2.0,,5.0,4.0,5.0,5.0,6.0,5.0,5.0,6.0,5.0,5.0,4.0,2.0,6.0,2.0,6.0,4.0,2.0,2.0,2.0,6.0,6.0,5.0,5.0,5.0,4.0,4.0,,4.0,4.0,4.0,5.0,4.0,3.0,I am disturbed by the hubristic attitude of the evangelical and right wing people in America toward COVID-19.,2.1,2.666667,3.333333,2.666667,4.333333,4.333333,5.666667,5.1
104055,721,2020-03-30 17:47:53,EN,38,Female,"College degree, bachelor, master",PhD/Doctorate,Full time employed,United States,no,FLORIDA,Married/cohabiting,1.0,Yes,Isolated,1.0,1.0,Program A,,No,3.0,2.0,2.0,3.0,3.0,2.0,3.0,3.0,3.0,1.0,3.0,2.0,3.0,7.0,8.0,0.0,1.0,2.0,2.0,8.0,0.0,5.0,5.0,6.0,6.0,6.0,1.0,5.0,5.0,5.0,2.0,2.0,3.0,3.0,2.0,4.0,4.0,2.0,4.0,4.0,5.0,4.0,2.0,4.0,5.0,5.0,3.0,5.0,2.0,2.0,6.0,2.0,4.0,4.0,2.0,2.0,2.0,3.0,2.0,5.0,6.0,6.0,3.0,2.0,2.0,2.0,2.0,2.0,4.0,2.0,5.0,2.0,,5.0,5.0,5.0,5.0,5.0,5.0,5.0,5.0,5.0,5.0,3.0,4.0,2.0,2.0,2.0,5.0,2.0,2.0,5.0,2.0,2.0,5.0,4.0,4.0,2.0,4.0,,2.0,5.0,5.0,4.0,5.0,4.0,Our president is a moron who should be held internationally responsible for his inaction and lies.,2.5,2.666667,2.666667,3.0,4.333333,4.666667,4.666667,5.0
104057,1036,2020-03-31 17:53:11,EN,51,Female,"College degree, bachelor, master",Some College or equivalent,Full time employed,United States,no,Virginia,Single,0.0,Yes,Isolated,0.0,0.0,Program A,,Not sure,3.0,3.0,3.0,4.0,4.0,3.0,4.0,3.0,3.0,2.0,4.0,3.0,3.0,6.0,4.0,4.0,2.0,5.0,2.0,4.0,1.0,5.0,6.0,6.0,5.0,6.0,1.0,5.0,5.0,5.0,2.0,3.0,2.0,2.0,2.0,4.0,6.0,6.0,2.0,5.0,5.0,4.0,2.0,6.0,5.0,5.0,1.0,5.0,4.0,4.0,99.0,2.0,2.0,4.0,2.0,99.0,99.0,4.0,4.0,4.0,5.0,6.0,2.0,3.0,4.0,5.0,4.0,2.0,3.0,3.0,5.0,5.0,,6.0,6.0,6.0,6.0,6.0,5.0,6.0,6.0,6.0,6.0,4.0,1.0,5.0,1.0,5.0,4.0,1.0,1.0,5.0,4.0,4.0,4.0,5.0,5.0,1.0,5.0,,4.0,3.0,4.0,4.0,4.0,3.0,,2.6,3.333333,2.333333,5.666667,4.666667,5.333333,5.333333,5.9
104060,494,2020-03-30 17:43:04,ZH-T,25,Female,PhD/Doctorate,PhD/Doctorate,Self-employed,United States,yes,Texas,Married/cohabiting,0.0,Yes,Life carries on with minor changes,0.0,,,Program D,Not sure,4.0,4.0,4.0,3.0,2.0,3.0,3.0,3.0,3.0,4.0,4.0,2.0,4.0,3.0,5.0,2.0,1.0,3.0,1.0,0.0,5.0,4.0,2.0,4.0,6.0,5.0,3.0,3.0,5.0,4.0,4.0,3.0,3.0,4.0,4.0,4.0,3.0,4.0,4.0,5.0,3.0,5.0,4.0,5.0,5.0,4.0,4.0,5.0,6.0,5.0,99.0,4.0,3.0,4.0,2.0,4.0,99.0,6.0,5.0,5.0,4.0,4.0,4.0,3.0,4.0,5.0,3.0,4.0,5.0,3.0,4.0,5.0,,4.0,3.0,4.0,4.0,5.0,4.0,4.0,4.0,5.0,4.0,4.0,3.0,3.0,4.0,4.0,5.0,4.0,2.0,4.0,3.0,4.0,4.0,4.0,5.0,3.0,2.0,,4.0,4.0,5.0,4.0,4.0,3.0,,3.5,3.333333,3.666667,3.333333,4.333333,4.333333,4.0,4.1
104061,331,2020-03-31 17:40:15,EN,54,Female,"College degree, bachelor, master",Up to 12 years of school,Full time employed,United States,no,Michigan,Married/cohabiting,2.0,Yes,Isolated,3.0,0.0,Program B,,No,2.0,1.0,3.0,5.0,4.0,1.0,5.0,5.0,1.0,1.0,2.0,1.0,2.0,,,,,,,,,,,,,,,,,,,,,,,,,,,,,,,,,,,,,,,,,,,,,,,,,,,,,,,,,,,,,,,,,,,,,,,,,,,,,,,,,,,,,,,,,,,,,,,1.4,1.666667,,,,,,
104071,1118,2020-03-30 17:51:36,DA,44,Female,"College degree, bachelor, master",College degree,Part time employed,United States,yes,Santa clara county,Married/cohabiting,3.0,No,Isolated,3.0,0.0,,Program D,No,1.0,5.0,3.0,4.0,2.0,1.0,4.0,4.0,3.0,1.0,1.0,1.0,4.0,8.0,9.0,9.0,9.0,9.0,9.0,9.0,9.0,4.0,4.0,4.0,6.0,6.0,9.0,5.0,5.0,5.0,4.0,6.0,1.0,5.0,4.0,4.0,1.0,3.0,4.0,5.0,4.0,4.0,5.0,4.0,6.0,5.0,5.0,3.0,1.0,4.0,5.0,1.0,5.0,2.0,99.0,1.0,1.0,6.0,2.0,5.0,5.0,6.0,99.0,2.0,2.0,2.0,2.0,6.0,2.0,1.0,5.0,99.0,"At blive smittet på mit job som sygeplejerske, at skulle have samme maske på en hel dag, at vi ikke har disenfectant wipes nok. At jeg ikke ved om der er fly til Dk så jeg kan besøge min kræftramte mor, at hun bliver smittet, at ferier må aflyses. At børnene ikke kan ændre deres karakterer. At der ikke afholdes graduation etc",6.0,6.0,6.0,6.0,6.0,6.0,6.0,6.0,6.0,6.0,5.0,6.0,5.0,3.0,1.0,6.0,6.0,1.0,5.0,5.0,4.0,5.0,4.0,4.0,1.0,6.0,,,,,,,,"Jeg undrer mig over ingen opfølgning på min mors kræftsygdom, at hun bare overlades til at ringe til lægen, hvis der er noget. Hun har aldrig gået til læge før. Nu med dårlig nyrefuntion og 5 mdr tilbage.",2.4,2.0,4.0,2.333333,4.333333,4.0,3.333333,6.0
104084,1206,2020-03-30 17:49:19,EN,70,Male,PhD/Doctorate,PhD/Doctorate,Retired,United States,no,New York,Divorced/widowed,0.0,Yes,Isolated,0.0,0.0,Program A,,No,2.0,2.0,2.0,4.0,2.0,3.0,4.0,3.0,3.0,2.0,3.0,2.0,3.0,4.0,7.0,3.0,6.0,5.0,4.0,4.0,3.0,2.0,5.0,5.0,5.0,5.0,0.0,6.0,2.0,5.0,2.0,2.0,5.0,4.0,4.0,2.0,4.0,1.0,5.0,4.0,5.0,5.0,2.0,2.0,5.0,2.0,5.0,3.0,99.0,99.0,99.0,2.0,99.0,2.0,2.0,99.0,99.0,6.0,5.0,5.0,5.0,5.0,99.0,2.0,2.0,4.0,5.0,2.0,4.0,2.0,5.0,99.0,,4.0,5.0,2.0,2.0,4.0,2.0,4.0,2.0,5.0,4.0,2.0,2.0,5.0,2.0,5.0,2.0,1.0,1.0,2.0,2.0,4.0,4.0,2.0,2.0,2.0,2.0,,4.0,4.0,4.0,5.0,2.0,3.0,Underlying health issues that place me at risk,2.5,2.666667,4.333333,2.333333,4.666667,4.0,2.333333,3.4
104086,780,2020-03-30 17:41:20,EN,32,Female,PhD/Doctorate,College degree,Full time employed,United States,yes,Illinois,Married/cohabiting,1.0,Yes,Isolated,3.0,1.0,,Program D,No,5.0,4.0,5.0,3.0,2.0,5.0,2.0,1.0,5.0,4.0,2.0,3.0,4.0,0.0,8.0,1.0,8.0,8.0,10.0,6.0,0.0,6.0,6.0,6.0,6.0,6.0,0.0,5.0,6.0,6.0,3.0,1.0,5.0,5.0,3.0,5.0,5.0,4.0,4.0,5.0,6.0,5.0,1.0,3.0,6.0,6.0,2.0,6.0,2.0,5.0,4.0,6.0,6.0,2.0,99.0,6.0,6.0,5.0,6.0,6.0,6.0,6.0,1.0,1.0,1.0,99.0,2.0,5.0,6.0,1.0,5.0,5.0,,4.0,3.0,3.0,4.0,5.0,4.0,5.0,5.0,4.0,5.0,1.0,3.0,5.0,3.0,3.0,1.0,6.0,6.0,5.0,4.0,6.0,1.0,6.0,5.0,1.0,1.0,,3.0,6.0,6.0,5.0,3.0,2.0,,4.4,3.0,3.333333,4.0,5.333333,5.0,5.666667,4.2
104111,1117,2020-03-30 17:41:42,EN,26,Female,"College degree, bachelor, master",College degree,Full time employed,United States,yes,CA,Single,0.0,No,Isolated,0.0,0.0,,,,3.0,3.0,3.0,3.0,2.0,5.0,5.0,3.0,5.0,5.0,3.0,2.0,5.0,3.0,4.0,5.0,3.0,3.0,1.0,8.0,2.0,6.0,3.0,2.0,4.0,4.0,0.0,3.0,5.0,5.0,4.0,1.0,2.0,5.0,6.0,1.0,2.0,3.0,4.0,2.0,6.0,3.0,4.0,3.0,4.0,5.0,6.0,5.0,1.0,6.0,99.0,6.0,5.0,4.0,99.0,99.0,99.0,3.0,3.0,5.0,6.0,4.0,4.0,4.0,4.0,5.0,6.0,1.0,1.0,1.0,6.0,6.0,finding housing/moving to a new place,3.0,2.0,4.0,3.0,5.0,5.0,5.0,5.0,5.0,2.0,,,,,,,,,,,,,,,,,,,,,,,,,3.5,3.333333,5.666667,2.666667,3.666667,3.333333,3.666667,3.9
104114,74687,2020-03-31 14:06:39,EN,22,Female,"College degree, bachelor, master",Some College or equivalent,Student,United States,yes,TX,Single,0.0,Yes,Isolated,3.0,0.0,,Program C,No,2.0,3.0,4.0,4.0,4.0,3.0,3.0,4.0,2.0,4.0,3.0,3.0,3.0,8.0,6.0,6.0,6.0,6.0,5.0,9.0,6.0,5.0,5.0,5.0,6.0,6.0,4.0,4.0,5.0,5.0,2.0,4.0,4.0,4.0,5.0,4.0,5.0,4.0,4.0,4.0,6.0,5.0,2.0,5.0,6.0,5.0,3.0,5.0,6.0,5.0,5.0,5.0,5.0,6.0,5.0,6.0,4.0,6.0,5.0,5.0,5.0,6.0,5.0,2.0,3.0,6.0,5.0,4.0,5.0,4.0,5.0,6.0,,5.0,5.0,4.0,5.0,5.0,5.0,5.0,5.0,5.0,5.0,4.0,5.0,5.0,5.0,5.0,5.0,4.0,5.0,5.0,5.0,4.0,4.0,4.0,5.0,5.0,4.0,,4.0,4.0,4.0,4.0,4.0,4.0,,2.7,3.0,4.0,4.0,5.0,5.333333,4.666667,4.9
104134,974,2020-03-30 17:32:29,EN,50,Female,"College degree, bachelor, master",College degree,Full time employed,United States,no,Ohio,Married/cohabiting,0.0,Yes,Life carries on with minor changes,,,Program A,,No,1.0,3.0,4.0,4.0,3.0,3.0,4.0,3.0,2.0,3.0,3.0,1.0,3.0,4.0,6.0,3.0,4.0,6.0,4.0,3.0,4.0,4.0,6.0,4.0,4.0,3.0,5.0,5.0,3.0,4.0,3.0,2.0,3.0,6.0,5.0,2.0,4.0,4.0,3.0,3.0,5.0,5.0,1.0,4.0,6.0,6.0,2.0,5.0,4.0,2.0,99.0,2.0,4.0,3.0,2.0,1.0,99.0,6.0,3.0,6.0,5.0,5.0,2.0,2.0,2.0,2.0,2.0,4.0,2.0,1.0,4.0,3.0,,5.0,3.0,3.0,3.0,4.0,4.0,5.0,5.0,4.0,5.0,1.0,3.0,2.0,2.0,2.0,2.0,1.0,2.0,5.0,5.0,2.0,2.0,3.0,3.0,2.0,2.0,,2.0,2.0,2.0,2.0,2.0,4.0,,2.6,2.333333,5.333333,4.0,4.333333,5.333333,5.333333,4.1
104143,1204,2020-03-30 17:33:28,EN,52,Male,"College degree, bachelor, master",Some College or equivalent,Retired,United States,no,NY,Married/cohabiting,3.0,No,Isolated,2.0,0.0,Program A,,No,3.0,4.0,4.0,3.0,2.0,3.0,3.0,3.0,3.0,4.0,4.0,2.0,5.0,5.0,9.0,4.0,9.0,7.0,8.0,3.0,8.0,5.0,5.0,5.0,5.0,5.0,5.0,6.0,5.0,5.0,2.0,2.0,4.0,5.0,4.0,5.0,4.0,2.0,5.0,5.0,5.0,5.0,2.0,6.0,5.0,5.0,2.0,6.0,6.0,99.0,5.0,2.0,3.0,4.0,2.0,5.0,2.0,5.0,2.0,6.0,4.0,4.0,2.0,2.0,2.0,2.0,2.0,5.0,2.0,2.0,5.0,2.0,,4.0,5.0,5.0,4.0,5.0,4.0,5.0,5.0,5.0,5.0,4.0,4.0,2.0,2.0,2.0,1.0,5.0,5.0,5.0,4.0,4.0,5.0,1.0,5.0,5.0,5.0,,2.0,2.0,2.0,2.0,1.0,2.0,,3.4,3.666667,3.666667,2.666667,5.0,5.333333,5.333333,4.7
104150,874,2020-03-30 17:26:47,EN,40,Female,"College degree, bachelor, master",College degree,Part time employed,United States,no,Michigan,Married/cohabiting,4.0,Yes,Isolated,1.0,2.0,Program A,,No,4.0,3.0,4.0,4.0,3.0,3.0,2.0,4.0,2.0,3.0,1.0,1.0,1.0,7.0,3.0,0.0,4.0,5.0,8.0,8.0,1.0,4.0,5.0,4.0,5.0,4.0,,5.0,5.0,4.0,4.0,2.0,5.0,3.0,3.0,5.0,5.0,2.0,2.0,5.0,5.0,3.0,2.0,5.0,5.0,4.0,3.0,5.0,4.0,4.0,4.0,4.0,4.0,4.0,2.0,4.0,5.0,3.0,3.0,5.0,4.0,2.0,5.0,3.0,99.0,4.0,4.0,6.0,2.0,2.0,4.0,2.0,,5.0,5.0,4.0,5.0,5.0,5.0,5.0,5.0,5.0,5.0,2.0,4.0,4.0,4.0,4.0,5.0,4.0,4.0,5.0,4.0,4.0,3.0,5.0,5.0,2.0,2.0,,4.0,5.0,5.0,4.0,5.0,4.0,,3.0,1.0,2.666667,4.0,4.333333,5.0,4.333333,4.9
104152,1082,2020-03-30 17:29:29,ZH-T,33,Female,PhD/Doctorate,PhD/Doctorate,Student,United States,yes,Texas,Married/cohabiting,0.0,No,Life carries on with minor changes,1.0,0.0,,Program C,Yes,4.0,4.0,4.0,1.0,1.0,5.0,3.0,1.0,2.0,4.0,1.0,2.0,2.0,6.0,8.0,2.0,3.0,2.0,5.0,0.0,7.0,2.0,3.0,3.0,5.0,6.0,5.0,3.0,5.0,5.0,1.0,2.0,4.0,6.0,6.0,2.0,2.0,2.0,5.0,1.0,5.0,3.0,2.0,4.0,5.0,4.0,4.0,3.0,4.0,5.0,99.0,6.0,2.0,3.0,99.0,2.0,99.0,6.0,5.0,3.0,3.0,2.0,2.0,2.0,5.0,2.0,5.0,4.0,6.0,2.0,5.0,4.0,,6.0,4.0,3.0,6.0,6.0,5.0,5.0,6.0,5.0,5.0,5.0,6.0,5.0,5.0,3.0,5.0,4.0,6.0,5.0,5.0,4.0,4.0,5.0,4.0,2.0,5.0,,4.0,5.0,5.0,5.0,3.0,2.0,,4.1,1.666667,5.666667,2.0,3.0,4.666667,3.333333,5.1
104171,688,2020-03-30 17:18:13,EN,61,Female,PhD/Doctorate,Some College or equivalent,Self-employed,United States,no,Virginia,Married/cohabiting,1.0,Yes,Life carries on with minor changes,2.0,0.0,Program A,,No,3.0,1.0,3.0,5.0,5.0,2.0,4.0,4.0,4.0,2.0,1.0,1.0,1.0,7.0,9.0,1.0,2.0,2.0,5.0,8.0,0.0,5.0,6.0,5.0,5.0,5.0,0.0,6.0,5.0,6.0,1.0,3.0,2.0,5.0,4.0,3.0,5.0,5.0,3.0,5.0,6.0,5.0,3.0,5.0,5.0,5.0,4.0,5.0,5.0,4.0,99.0,5.0,5.0,1.0,1.0,4.0,99.0,6.0,5.0,5.0,5.0,4.0,1.0,4.0,3.0,2.0,1.0,1.0,5.0,1.0,3.0,3.0,,6.0,5.0,5.0,6.0,5.0,6.0,5.0,5.0,5.0,6.0,5.0,3.0,5.0,1.0,5.0,5.0,1.0,1.0,5.0,5.0,3.0,5.0,5.0,5.0,4.0,5.0,,5.0,4.0,1.0,1.0,4.0,4.0,,2.1,1.0,4.333333,4.666667,5.333333,4.666667,4.333333,5.4
104172,820,2020-03-30 17:20:07,EN,50,Female,"College degree, bachelor, master",Up to 12 years of school,Self-employed,United States,no,Michigan,Married/cohabiting,2.0,Yes,Life carries on with minor changes,1.0,1.0,,Program D,No,2.0,1.0,3.0,1.0,3.0,1.0,4.0,5.0,2.0,1.0,1.0,1.0,4.0,4.0,8.0,5.0,8.0,4.0,8.0,8.0,3.0,4.0,3.0,4.0,4.0,3.0,3.0,5.0,4.0,5.0,3.0,5.0,5.0,4.0,3.0,5.0,5.0,5.0,3.0,3.0,5.0,4.0,4.0,5.0,4.0,3.0,4.0,4.0,4.0,6.0,6.0,4.0,4.0,3.0,4.0,5.0,4.0,6.0,4.0,4.0,4.0,4.0,4.0,4.0,4.0,4.0,4.0,3.0,4.0,4.0,6.0,4.0,,5.0,5.0,5.0,4.0,5.0,4.0,5.0,6.0,4.0,5.0,2.0,4.0,5.0,4.0,4.0,3.0,4.0,3.0,4.0,3.0,3.0,3.0,3.0,4.0,3.0,4.0,,4.0,4.0,5.0,4.0,4.0,5.0,,2.1,2.0,3.0,4.666667,4.0,4.0,3.333333,4.8
104180,682,2020-03-30 17:16:15,EN,38,Male,"College degree, bachelor, master",Some College or equivalent,Self-employed,United States,no,New Jersey,Married/cohabiting,0.0,Yes,Life carries on with minor changes,4.0,0.0,,,,3.0,3.0,2.0,4.0,4.0,3.0,3.0,3.0,3.0,2.0,2.0,2.0,2.0,5.0,8.0,8.0,8.0,8.0,8.0,8.0,8.0,4.0,4.0,4.0,4.0,4.0,5.0,4.0,3.0,5.0,4.0,4.0,3.0,4.0,3.0,4.0,4.0,5.0,4.0,4.0,5.0,5.0,3.0,5.0,4.0,4.0,3.0,4.0,4.0,4.0,4.0,4.0,4.0,3.0,3.0,3.0,4.0,4.0,4.0,4.0,4.0,4.0,4.0,4.0,4.0,,4.0,4.0,4.0,4.0,4.0,4.0,,3.0,3.0,3.0,4.0,3.0,3.0,3.0,3.0,3.0,3.0,4.0,4.0,4.0,4.0,4.0,4.0,4.0,4.0,4.0,4.0,4.0,4.0,4.0,4.0,4.0,4.0,,4.0,4.0,4.0,4.0,4.0,4.0,,2.6,2.0,3.333333,4.0,4.666667,4.333333,4.0,3.1
104211,1476,2020-03-30 17:23:41,EN,64,Female,"Some College, short continuing education or equivalent",Some College or equivalent,Retired,United States,no,RI,Married/cohabiting,0.0,Yes,Life carries on with minor changes,1.0,0.0,,Program C,No,2.0,3.0,2.0,1.0,3.0,3.0,3.0,4.0,3.0,2.0,3.0,3.0,3.0,6.0,9.0,6.0,6.0,6.0,7.0,8.0,,5.0,5.0,5.0,5.0,4.0,3.0,5.0,5.0,5.0,3.0,3.0,4.0,2.0,2.0,6.0,4.0,5.0,2.0,5.0,5.0,4.0,2.0,5.0,5.0,5.0,1.0,5.0,6.0,4.0,99.0,6.0,3.0,3.0,3.0,3.0,99.0,6.0,5.0,6.0,6.0,5.0,2.0,2.0,4.0,2.0,4.0,6.0,6.0,2.0,4.0,3.0,Missing time with my grandchildren,6.0,5.0,5.0,6.0,6.0,6.0,6.0,6.0,5.0,6.0,3.0,6.0,6.0,5.0,5.0,4.0,2.0,2.0,5.0,6.0,4.0,4.0,3.0,5.0,4.0,3.0,,3.0,5.0,3.0,5.0,4.0,4.0,I feel i am more skeptical of people and what they are doing,2.8,3.0,1.666667,4.666667,4.666667,5.0,5.333333,5.7
104216,1081,2020-03-31 17:16:23,EN,70,Male,"Some College, short continuing education or equivalent",Up to 12 years of school,Retired,United States,no,Michigan,Married/cohabiting,2.0,Not sure,Isolated,1.0,0.0,,,,3.0,2.0,2.0,4.0,3.0,3.0,1.0,4.0,3.0,2.0,2.0,1.0,2.0,7.0,7.0,5.0,5.0,5.0,5.0,5.0,4.0,6.0,6.0,5.0,6.0,5.0,6.0,5.0,4.0,5.0,2.0,6.0,5.0,4.0,4.0,5.0,6.0,5.0,4.0,6.0,4.0,6.0,6.0,6.0,5.0,4.0,4.0,3.0,5.0,,6.0,4.0,4.0,,5.0,,5.0,6.0,1.0,4.0,5.0,99.0,,5.0,,4.0,6.0,,4.0,,5.0,6.0,,,,,,,,,,,,,,,,,,,,,,,,,,,,,,,,,,,,2.7,1.666667,3.333333,4.666667,5.333333,4.0,3.333333,
104225,1086,2020-03-30 17:15:23,EN,44,Female,Up to 12 years of school,Up to 12 years of school,Self-employed,United States,no,Virginia,Married/cohabiting,2.0,No,Life carries on with minor changes,4.0,0.0,Program B,,No,1.0,4.0,4.0,3.0,4.0,3.0,4.0,3.0,5.0,3.0,3.0,4.0,5.0,5.0,10.0,2.0,7.0,5.0,5.0,8.0,2.0,6.0,6.0,6.0,6.0,6.0,3.0,6.0,6.0,6.0,6.0,5.0,5.0,3.0,2.0,4.0,6.0,6.0,3.0,5.0,5.0,5.0,3.0,5.0,5.0,5.0,2.0,5.0,99.0,99.0,6.0,99.0,4.0,5.0,99.0,2.0,99.0,5.0,5.0,2.0,4.0,6.0,99.0,5.0,99.0,5.0,5.0,4.0,5.0,2.0,5.0,99.0,,5.0,5.0,5.0,5.0,6.0,5.0,6.0,6.0,5.0,5.0,3.0,5.0,5.0,5.0,5.0,5.0,2.0,2.0,5.0,5.0,5.0,5.0,5.0,5.0,2.0,4.0,,2.0,2.0,2.0,3.0,5.0,2.0,,3.0,4.0,2.666667,5.333333,5.0,4.666667,5.0,5.3
104261,931,2020-03-30 17:05:14,EN,38,Female,"Some College, short continuing education or equivalent",Up to 12 years of school,Self-employed,United States,no,Michigan,Married/cohabiting,3.0,Yes,Isolated,1.0,3.0,Program A,,No,3.0,2.0,4.0,4.0,4.0,2.0,4.0,4.0,3.0,2.0,1.0,2.0,2.0,6.0,9.0,5.0,7.0,8.0,5.0,10.0,1.0,5.0,5.0,5.0,5.0,5.0,0.0,5.0,4.0,4.0,2.0,4.0,2.0,5.0,4.0,4.0,5.0,4.0,2.0,3.0,6.0,4.0,2.0,5.0,6.0,5.0,2.0,5.0,3.0,4.0,5.0,2.0,4.0,4.0,1.0,2.0,4.0,5.0,3.0,4.0,4.0,4.0,2.0,2.0,2.0,4.0,3.0,2.0,3.0,2.0,4.0,1.0,,6.0,5.0,5.0,5.0,6.0,5.0,5.0,5.0,5.0,6.0,2.0,3.0,4.0,3.0,4.0,4.0,5.0,4.0,5.0,4.0,4.0,5.0,4.0,4.0,1.0,5.0,,4.0,5.0,4.0,2.0,2.0,4.0,,2.4,1.666667,4.0,4.666667,4.333333,5.333333,5.0,5.3
104266,3406,2020-03-30 17:45:23,EN,38,Female,"College degree, bachelor, master",Up to 12 years of school,Retired,United States,no,vermont,Single,0.0,Yes,Isolated,1.0,0.0,Program A,,No,2.0,3.0,3.0,3.0,3.0,2.0,4.0,2.0,2.0,2.0,2.0,2.0,3.0,5.0,9.0,2.0,3.0,5.0,8.0,6.0,3.0,1.0,6.0,4.0,6.0,5.0,4.0,6.0,5.0,6.0,4.0,4.0,4.0,2.0,2.0,5.0,5.0,5.0,3.0,5.0,5.0,5.0,1.0,6.0,6.0,5.0,2.0,6.0,5.0,5.0,99.0,4.0,4.0,5.0,99.0,2.0,99.0,5.0,5.0,5.0,5.0,5.0,5.0,5.0,1.0,4.0,5.0,2.0,2.0,1.0,5.0,4.0,,6.0,5.0,6.0,6.0,6.0,6.0,6.0,6.0,6.0,6.0,4.0,4.0,5.0,4.0,5.0,1.0,4.0,1.0,5.0,4.0,5.0,4.0,5.0,4.0,4.0,4.0,physical activity,4.0,3.0,5.0,4.0,1.0,4.0,"I have been getting daily information and updates from my place of work (College / University) about Coronavirus and I trust their information and guidance, which has helped ease my anxieties.",2.6,2.333333,2.0,4.666667,5.0,6.0,5.333333,5.9
104288,1319,2020-03-30 17:05:31,EN,25,Female,"College degree, bachelor, master",Up to 12 years of school,Full time employed,United States,yes,California,Single,0.0,Yes,Isolated,0.0,0.0,,Program D,No,4.0,4.0,4.0,3.0,3.0,3.0,3.0,2.0,3.0,3.0,3.0,3.0,3.0,6.0,9.0,5.0,7.0,8.0,7.0,0.0,5.0,1.0,5.0,4.0,5.0,4.0,3.0,5.0,5.0,6.0,2.0,3.0,3.0,6.0,6.0,5.0,5.0,2.0,5.0,4.0,5.0,5.0,2.0,5.0,5.0,5.0,4.0,5.0,3.0,5.0,99.0,5.0,4.0,4.0,1.0,99.0,99.0,4.0,4.0,3.0,5.0,5.0,5.0,2.0,4.0,5.0,5.0,99.0,6.0,2.0,5.0,6.0,,4.0,5.0,5.0,5.0,5.0,5.0,6.0,6.0,5.0,5.0,4.0,3.0,6.0,2.0,6.0,6.0,5.0,6.0,5.0,4.0,5.0,4.0,4.0,6.0,3.0,4.0,,5.0,5.0,5.0,5.0,6.0,2.0,,3.4,3.0,4.666667,3.0,4.666667,5.0,4.333333,5.1
104291,555,2020-03-30 16:52:13,EN,25,Male,"College degree, bachelor, master",Up to 12 years of school,Full time employed,United States,no,Florida,Single,0.0,No,Isolated,3.0,0.0,,Program C,No,1.0,1.0,4.0,5.0,4.0,4.0,1.0,2.0,1.0,1.0,3.0,4.0,4.0,6.0,9.0,1.0,4.0,1.0,6.0,0.0,5.0,4.0,5.0,4.0,6.0,6.0,3.0,6.0,4.0,5.0,1.0,1.0,2.0,5.0,4.0,5.0,6.0,5.0,4.0,6.0,6.0,4.0,3.0,6.0,4.0,4.0,4.0,5.0,2.0,4.0,99.0,1.0,3.0,5.0,1.0,5.0,99.0,2.0,1.0,6.0,5.0,1.0,1.0,1.0,1.0,4.0,2.0,2.0,1.0,1.0,6.0,5.0,,5.0,5.0,2.0,5.0,2.0,5.0,2.0,4.0,4.0,2.0,1.0,5.0,5.0,1.0,5.0,5.0,4.0,5.0,4.0,5.0,2.0,5.0,6.0,6.0,4.0,1.0,,5.0,5.0,1.0,4.0,1.0,1.0,,2.4,3.666667,3.666667,4.666667,5.333333,4.666667,4.0,3.6
104297,995,2020-03-30 16:58:33,EN,48,Female,"College degree, bachelor, master",College degree,Full time employed,United States,no,New York,Married/cohabiting,3.0,No,Life carries on with minor changes,3.0,1.0,,,,3.0,2.0,4.0,4.0,3.0,2.0,4.0,4.0,4.0,2.0,2.0,2.0,3.0,4.0,8.0,1.0,1.0,1.0,2.0,2.0,2.0,5.0,5.0,5.0,4.0,4.0,3.0,2.0,4.0,4.0,4.0,2.0,3.0,4.0,2.0,5.0,5.0,5.0,4.0,4.0,5.0,5.0,4.0,5.0,5.0,5.0,3.0,5.0,99.0,4.0,5.0,3.0,3.0,5.0,4.0,2.0,2.0,6.0,4.0,4.0,4.0,5.0,99.0,4.0,4.0,5.0,4.0,4.0,6.0,4.0,6.0,5.0,,5.0,5.0,5.0,5.0,5.0,4.0,5.0,5.0,5.0,5.0,3.0,5.0,4.0,4.0,4.0,3.0,2.0,2.0,4.0,4.0,4.0,4.0,5.0,4.0,4.0,3.0,,3.0,3.0,4.0,4.0,4.0,1.0,,2.6,2.333333,2.666667,4.333333,4.666667,4.333333,4.666667,4.9
104303,333,2020-03-31 16:46:35,EN,44,Male,"Some College, short continuing education or equivalent",Up to 12 years of school,Full time employed,United States,no,Michigan,Married/cohabiting,3.0,Yes,Life carries on with minor changes,,,,Program D,No,2.0,2.0,1.0,5.0,4.0,1.0,4.0,5.0,2.0,1.0,2.0,1.0,2.0,,,,,,,,,,,,,,,,,,,,,,,,,,,,,,,,,,,,,,,,,,,,,,,,,,,,,,,,,,,,,,,,,,,,,,,,,,,,,,,,,,,,,,,,,,,,,,,1.5,1.666667,,,,,,
104359,174,2020-03-31 16:30:55,EN,35,Female,"Some College, short continuing education or equivalent",Up to 12 years of school,Not employed,United States,no,Michigan,Married/cohabiting,3.0,Yes,Isolated,2.0,2.0,Program B,,Yes,3.0,5.0,4.0,5.0,3.0,3.0,4.0,2.0,4.0,3.0,5.0,3.0,5.0,,,,,,,,,,,,,,,,,,,,,,,,,,,,,,,,,,,,,,,,,,,,,,,,,,,,,,,,,,,,,,,,,,,,,,,,,,,,,,,,,,,,,,,,,,,,,,,3.2,4.333333,,,,,,
104385,1589,2020-03-30 16:48:30,EN,53,Female,"College degree, bachelor, master",Up to 12 years of school,Full time employed,United States,no,Virginia,Single,1.0,Yes,Life carries on with minor changes,,,Program B,,No,2.0,2.0,2.0,4.0,3.0,2.0,4.0,4.0,2.0,1.0,2.0,3.0,3.0,7.0,10.0,1.0,5.0,5.0,6.0,10.0,1.0,6.0,6.0,6.0,6.0,6.0,2.0,5.0,1.0,1.0,1.0,3.0,2.0,3.0,2.0,5.0,5.0,2.0,5.0,4.0,6.0,3.0,4.0,6.0,5.0,4.0,2.0,5.0,2.0,3.0,2.0,99.0,2.0,2.0,2.0,2.0,99.0,2.0,2.0,4.0,5.0,99.0,99.0,3.0,2.0,2.0,2.0,3.0,3.0,1.0,3.0,1.0,,6.0,6.0,6.0,6.0,6.0,6.0,6.0,6.0,5.0,6.0,2.0,5.0,6.0,4.0,5.0,4.0,1.0,4.0,4.0,4.0,2.0,4.0,4.0,6.0,6.0,4.0,,4.0,5.0,5.0,5.0,4.0,4.0,Meditation and  Yoga,2.0,2.666667,2.333333,3.0,4.333333,4.666667,4.666667,5.9
104411,554,2020-03-30 16:28:16,ZH-T,24,Male,PhD/Doctorate,Some College or equivalent,Student,United States,yes,Austin,Single,0.0,Not sure,Life carries on with minor changes,0.0,0.0,,Program D,No,5.0,4.0,4.0,2.0,1.0,3.0,1.0,1.0,4.0,2.0,4.0,2.0,2.0,5.0,9.0,7.0,4.0,1.0,0.0,0.0,4.0,5.0,4.0,4.0,6.0,6.0,3.0,4.0,5.0,5.0,2.0,3.0,4.0,6.0,6.0,1.0,2.0,3.0,5.0,2.0,5.0,5.0,4.0,5.0,5.0,6.0,5.0,5.0,99.0,99.0,99.0,6.0,5.0,2.0,1.0,4.0,99.0,5.0,5.0,4.0,3.0,4.0,2.0,2.0,6.0,5.0,5.0,5.0,6.0,2.0,6.0,1.0,,3.0,2.0,3.0,4.0,4.0,4.0,4.0,4.0,4.0,4.0,5.0,4.0,5.0,3.0,2.0,4.0,4.0,2.0,5.0,3.0,2.0,4.0,4.0,4.0,1.0,5.0,,3.0,4.0,3.0,1.0,5.0,1.0,,4.1,2.666667,6.0,2.333333,4.0,4.333333,4.333333,3.6
104425,576,2020-03-30 16:24:47,EN,48,Female,PhD/Doctorate,College degree,Full time employed,United States,no,MI,Married/cohabiting,2.0,Yes,Life carries on with minor changes,2.0,2.0,,,,2.0,2.0,4.0,4.0,4.0,2.0,4.0,4.0,2.0,2.0,2.0,2.0,2.0,8.0,7.0,5.0,7.0,7.0,7.0,7.0,6.0,5.0,5.0,5.0,5.0,5.0,4.0,4.0,4.0,5.0,2.0,5.0,5.0,5.0,3.0,5.0,2.0,2.0,5.0,4.0,5.0,5.0,5.0,5.0,4.0,5.0,4.0,5.0,2.0,2.0,2.0,2.0,2.0,2.0,2.0,2.0,5.0,5.0,2.0,5.0,5.0,6.0,2.0,2.0,5.0,2.0,2.0,2.0,2.0,2.0,2.0,2.0,,5.0,5.0,5.0,5.0,5.0,5.0,5.0,5.0,5.0,5.0,5.0,5.0,5.0,5.0,5.0,5.0,5.0,5.0,5.0,5.0,5.0,5.0,5.0,5.0,5.0,5.0,,5.0,5.0,5.0,5.0,5.0,5.0,,2.2,2.0,3.333333,2.0,4.666667,3.666667,4.333333,5.0
104428,895,2020-03-30 16:29:43,EN,55,Female,"College degree, bachelor, master",Up to 12 years of school,Full time employed,United States,no,Virginia,Married/cohabiting,2.0,No,Life carries on with minor changes,,,Program A,,No,4.0,3.0,4.0,4.0,4.0,2.0,3.0,4.0,4.0,2.0,1.0,1.0,2.0,5.0,9.0,5.0,7.0,8.0,6.0,8.0,4.0,5.0,5.0,5.0,6.0,6.0,2.0,6.0,6.0,6.0,1.0,5.0,4.0,3.0,2.0,6.0,5.0,5.0,2.0,6.0,6.0,6.0,4.0,4.0,6.0,6.0,5.0,5.0,1.0,1.0,4.0,99.0,4.0,2.0,99.0,4.0,99.0,6.0,5.0,5.0,5.0,5.0,2.0,4.0,5.0,99.0,2.0,5.0,4.0,1.0,4.0,1.0,,6.0,6.0,6.0,6.0,6.0,5.0,6.0,6.0,6.0,6.0,5.0,5.0,4.0,2.0,4.0,5.0,3.0,5.0,4.0,5.0,5.0,5.0,4.0,3.0,4.0,5.0,,5.0,5.0,5.0,5.0,5.0,5.0,,2.8,1.333333,2.0,5.0,6.0,4.333333,4.333333,5.9
104429,734,2020-03-31 16:27:12,LT,43,Female,"College degree, bachelor, master",College degree,Full time employed,United States,yes,Minnesota,Married/cohabiting,2.0,No,Life carries on with minor changes,1.0,1.0,Program B,,Yes,2.0,3.0,3.0,1.0,3.0,2.0,2.0,1.0,2.0,2.0,3.0,1.0,2.0,5.0,9.0,9.0,9.0,7.0,9.0,8.0,8.0,4.0,4.0,5.0,4.0,4.0,5.0,4.0,4.0,3.0,4.0,4.0,5.0,3.0,3.0,4.0,4.0,3.0,4.0,2.0,4.0,4.0,3.0,4.0,4.0,3.0,4.0,4.0,3.0,2.0,6.0,5.0,5.0,5.0,2.0,5.0,5.0,5.0,99.0,5.0,5.0,5.0,4.0,5.0,5.0,5.0,4.0,5.0,2.0,5.0,5.0,5.0,N/a,,,,,,,,,,,,,,,,,,,,,,,,,,,,,,,,,,,3.1,2.0,3.0,3.333333,3.333333,4.0,3.333333,
104442,1593,2020-03-30 16:39:11,EN,76,Male,"College degree, bachelor, master",Some College or equivalent,Part time employed,United States,no,New Jersey,Married/cohabiting,0.0,Yes,Life carries on with minor changes,3.0,0.0,,Program C,No,2.0,2.0,2.0,5.0,4.0,1.0,5.0,4.0,2.0,1.0,1.0,2.0,2.0,8.0,9.0,6.0,7.0,8.0,9.0,9.0,7.0,6.0,6.0,6.0,6.0,6.0,4.0,5.0,5.0,4.0,2.0,5.0,2.0,5.0,1.0,6.0,5.0,4.0,2.0,5.0,5.0,5.0,4.0,5.0,5.0,4.0,1.0,6.0,2.0,1.0,1.0,1.0,2.0,2.0,2.0,4.0,1.0,6.0,3.0,5.0,5.0,5.0,4.0,2.0,1.0,1.0,3.0,3.0,4.0,3.0,4.0,1.0,,6.0,6.0,6.0,6.0,6.0,6.0,6.0,6.0,6.0,6.0,5.0,6.0,6.0,5.0,5.0,2.0,1.0,1.0,4.0,5.0,5.0,5.0,6.0,6.0,5.0,4.0,,5.0,2.0,2.0,4.0,3.0,4.0,"I am a semi-retired family therapist living and working at home.  My location is somewhat remote for New Jersey.  This has allowed me to have a lower sense of worry and insecurity than if I lived in a more populated area.  My work has also helped me learn a lot of emotional coping mechanisms, and I am gratified that I am able to share them with clients and others during this time of crisis.",1.6,1.666667,2.333333,4.666667,5.0,4.333333,5.333333,6.0
104447,741,2020-03-30 16:23:58,EN,31,Male,PhD/Doctorate,Up to 12 years of school,Full time employed,United States,no,Rhode Island,Single,0.0,No,Isolated,0.0,0.0,,Program C,No,2.0,2.0,3.0,3.0,3.0,2.0,3.0,3.0,2.0,2.0,2.0,2.0,4.0,5.0,8.0,5.0,8.0,9.0,9.0,7.0,4.0,1.0,1.0,1.0,1.0,1.0,3.0,5.0,4.0,2.0,2.0,2.0,2.0,5.0,5.0,5.0,5.0,3.0,5.0,5.0,6.0,3.0,2.0,5.0,6.0,6.0,3.0,6.0,6.0,5.0,99.0,6.0,2.0,5.0,1.0,99.0,99.0,6.0,2.0,5.0,5.0,5.0,99.0,5.0,2.0,4.0,5.0,3.0,2.0,5.0,6.0,4.0,,6.0,6.0,4.0,6.0,6.0,5.0,6.0,6.0,4.0,6.0,2.0,5.0,6.0,5.0,5.0,3.0,4.0,2.0,5.0,5.0,2.0,2.0,2.0,6.0,2.0,1.0,,5.0,6.0,2.0,6.0,6.0,5.0,,2.5,2.666667,4.0,3.333333,4.666667,5.333333,5.333333,5.5
104448,729,2020-03-31 16:24:03,PL,40,Female,"Some College, short continuing education or equivalent",Some College or equivalent,Self-employed,United States,yes,Montgomery- Pennsylvania,Married/cohabiting,2.0,No,Isolated,1.0,2.0,Program B,,No,3.0,3.0,3.0,5.0,2.0,2.0,5.0,3.0,3.0,3.0,2.0,1.0,4.0,3.0,3.0,1.0,1.0,1.0,6.0,6.0,4.0,6.0,6.0,6.0,,6.0,5.0,5.0,5.0,6.0,5.0,2.0,2.0,5.0,3.0,5.0,3.0,4.0,5.0,4.0,4.0,5.0,3.0,5.0,4.0,5.0,3.0,6.0,,,,,,,,,,,,,,,,,,,,,,,,,,,,,,,,,,,,,,,,,,,,,,,,,,,,,,,,,,,,2.6,2.333333,3.333333,3.0,4.333333,4.333333,5.0,
104460,81392,2020-03-31 14:45:59,EN,38,Female,"College degree, bachelor, master",Up to 9 years of school,Not employed,United States,yes,Indianapolis,Married/cohabiting,0.0,Not sure,Isolated,1.0,0.0,Program A,,No,4.0,3.0,,5.0,5.0,3.0,4.0,5.0,3.0,2.0,4.0,3.0,3.0,5.0,9.0,7.0,5.0,6.0,5.0,6.0,8.0,6.0,6.0,6.0,6.0,6.0,5.0,6.0,6.0,6.0,,3.0,4.0,6.0,2.0,6.0,6.0,6.0,2.0,4.0,5.0,4.0,1.0,5.0,6.0,5.0,1.0,6.0,99.0,5.0,99.0,6.0,99.0,4.0,4.0,1.0,99.0,6.0,4.0,3.0,6.0,6.0,99.0,99.0,99.0,6.0,4.0,1.0,6.0,2.0,6.0,6.0,,6.0,6.0,6.0,6.0,6.0,6.0,6.0,6.0,4.0,6.0,3.0,6.0,6.0,2.0,6.0,6.0,1.0,2.0,6.0,3.0,6.0,6.0,6.0,6.0,4.0,3.0,,6.0,6.0,6.0,1.0,2.0,2.0,"Due to flight restrictions, I can't go home. So I am worried , should something happen to my loved ones I might not be able to go home.",2.222222,3.333333,3.0,5.666667,4.333333,5.666667,5.666667,5.8
104473,947,2020-03-30 16:22:44,EN,31,Female,"Some College, short continuing education or equivalent",Some College or equivalent,Full time employed,United States,no,texas,Married/cohabiting,0.0,Yes,Life carries on with minor changes,1.0,0.0,Program A,,No,2.0,2.0,3.0,4.0,4.0,1.0,5.0,4.0,2.0,1.0,1.0,1.0,3.0,5.0,9.0,7.0,7.0,7.0,7.0,8.0,5.0,2.0,2.0,2.0,4.0,5.0,5.0,5.0,6.0,6.0,4.0,2.0,4.0,4.0,2.0,4.0,5.0,4.0,2.0,3.0,4.0,2.0,4.0,4.0,3.0,5.0,2.0,5.0,1.0,1.0,99.0,2.0,3.0,,2.0,2.0,99.0,5.0,6.0,5.0,2.0,2.0,2.0,2.0,2.0,5.0,5.0,5.0,4.0,2.0,4.0,1.0,,6.0,,6.0,6.0,6.0,6.0,6.0,6.0,6.0,6.0,5.0,5.0,5.0,5.0,5.0,4.0,1.0,1.0,5.0,2.0,4.0,5.0,4.0,2.0,5.0,2.0,,5.0,5.0,5.0,5.0,5.0,2.0,,1.8,1.666667,3.0,4.666667,3.0,3.333333,5.0,6.0
104518,631,2020-03-30 16:10:25,EN,42,Female,"College degree, bachelor, master",Some College or equivalent,Not employed,United States,yes,New York,Married/cohabiting,2.0,Yes,Isolated,1.0,1.0,Program B,,No,2.0,1.0,4.0,5.0,3.0,1.0,5.0,4.0,1.0,1.0,1.0,1.0,4.0,6.0,9.0,1.0,9.0,1.0,5.0,4.0,1.0,4.0,6.0,5.0,6.0,6.0,0.0,3.0,6.0,6.0,2.0,1.0,6.0,2.0,1.0,5.0,6.0,3.0,1.0,5.0,5.0,5.0,2.0,5.0,6.0,2.0,3.0,5.0,99.0,99.0,2.0,99.0,4.0,3.0,1.0,1.0,1.0,4.0,3.0,5.0,6.0,6.0,99.0,1.0,1.0,2.0,6.0,4.0,1.0,1.0,6.0,99.0,How we will adapt back to regular life and routines such as waking up to go school / work etc,6.0,6.0,6.0,6.0,6.0,6.0,6.0,6.0,4.0,6.0,3.0,4.0,4.0,2.0,4.0,5.0,2.0,2.0,4.0,5.0,5.0,2.0,5.0,5.0,1.0,3.0,Not putting pressure on ourselves to achieve too much in any one day esp homeschooling. The kids will still be able to count in September,1.0,6.0,6.0,4.0,5.0,2.0,"I do not have faith in the US government's response at all. The writing on the wall was clear from January and no preparations were done. The messages were too weak and inconsistent. I feel our state is less likely to receive federal help because we are a Democratic state and Trump is playing favourites. I feel similarly about the UK government's response and I am British, though living in the USA. I feel the countries that acted best are those that tested widely, irrespective of symptoms, and those than imposed social distancing and quarantining immediately.",1.7,2.0,1.666667,5.0,5.0,5.333333,3.666667,5.8
104522,962,2020-03-30 16:15:16,EN,52,Female,"Some College, short continuing education or equivalent",College degree,Part time employed,United States,no,florida,Single,0.0,No,Isolated,2.0,0.0,Program A,,No,3.0,4.0,4.0,3.0,3.0,3.0,3.0,3.0,2.0,3.0,3.0,2.0,3.0,7.0,9.0,4.0,6.0,5.0,3.0,9.0,3.0,5.0,5.0,5.0,5.0,5.0,4.0,5.0,5.0,5.0,2.0,4.0,4.0,5.0,5.0,5.0,5.0,2.0,5.0,2.0,5.0,2.0,2.0,5.0,4.0,2.0,3.0,5.0,5.0,5.0,2.0,2.0,5.0,5.0,2.0,2.0,2.0,5.0,5.0,5.0,5.0,5.0,5.0,5.0,2.0,5.0,5.0,2.0,2.0,2.0,2.0,2.0,,5.0,5.0,5.0,5.0,5.0,5.0,5.0,5.0,5.0,5.0,2.0,5.0,5.0,5.0,5.0,5.0,2.0,2.0,5.0,5.0,2.0,2.0,2.0,2.0,5.0,2.0,,5.0,5.0,2.0,2.0,5.0,2.0,,3.1,2.666667,4.0,3.0,3.0,4.666667,3.666667,5.0
104529,991,2020-03-30 16:14:08,EN,22,Other/would rather not say,"College degree, bachelor, master",College degree,Part time employed,United States,no,Pennsylvania,Single,0.0,Yes,Isolated,2.0,0.0,,Program D,No,3.0,3.0,3.0,5.0,3.0,1.0,4.0,4.0,3.0,2.0,3.0,3.0,5.0,3.0,9.0,3.0,3.0,7.0,10.0,9.0,3.0,5.0,6.0,5.0,5.0,5.0,4.0,6.0,6.0,5.0,2.0,5.0,4.0,5.0,5.0,4.0,5.0,3.0,4.0,5.0,6.0,4.0,5.0,4.0,5.0,6.0,4.0,5.0,99.0,5.0,99.0,6.0,4.0,5.0,99.0,3.0,99.0,5.0,5.0,5.0,6.0,6.0,5.0,4.0,2.0,4.0,4.0,3.0,4.0,1.0,6.0,99.0,,6.0,6.0,6.0,6.0,6.0,6.0,6.0,6.0,6.0,6.0,4.0,5.0,6.0,4.0,5.0,4.0,6.0,6.0,6.0,5.0,5.0,4.0,5.0,5.0,1.0,4.0,,5.0,5.0,5.0,5.0,5.0,3.0,,2.3,3.666667,4.333333,3.666667,5.0,3.666667,4.666667,6.0
104559,515,2020-03-31 16:03:12,PL,40,Female,"College degree, bachelor, master",Some College or equivalent,Not employed,United States,yes,,Married/cohabiting,2.0,Yes,Isolated,1.0,0.0,Program B,,No,5.0,4.0,4.0,2.0,3.0,3.0,3.0,4.0,3.0,4.0,5.0,3.0,5.0,7.0,8.0,0.0,3.0,0.0,5.0,9.0,0.0,5.0,5.0,6.0,4.0,5.0,1.0,5.0,5.0,5.0,2.0,4.0,4.0,4.0,5.0,2.0,6.0,6.0,2.0,5.0,5.0,2.0,2.0,4.0,6.0,4.0,4.0,3.0,,,,,,,,,,,,,,,,,,,,,,,,,,,,,,,,,,,,,,,,,,,,,,,,,,,,,,,,,,,,3.5,4.333333,4.666667,5.666667,4.0,5.0,3.333333,
104569,795,2020-03-30 16:05:19,EN,63,Female,"College degree, bachelor, master",Up to 12 years of school,Full time employed,United States,no,Rhode Island,Divorced/widowed,0.0,Yes,Isolated,1.0,0.0,Program B,,No,3.0,2.0,3.0,5.0,5.0,2.0,5.0,5.0,3.0,2.0,2.0,2.0,2.0,5.0,10.0,0.0,1.0,1.0,9.0,0.0,1.0,2.0,2.0,2.0,5.0,5.0,0.0,6.0,6.0,6.0,2.0,5.0,2.0,5.0,2.0,5.0,4.0,2.0,5.0,6.0,5.0,5.0,2.0,5.0,5.0,5.0,2.0,5.0,6.0,2.0,2.0,5.0,2.0,5.0,2.0,4.0,1.0,2.0,5.0,2.0,5.0,5.0,2.0,2.0,2.0,2.0,3.0,2.0,5.0,2.0,2.0,2.0,,5.0,5.0,5.0,5.0,5.0,5.0,5.0,5.0,5.0,5.0,5.0,5.0,5.0,2.0,5.0,5.0,2.0,2.0,5.0,5.0,4.0,5.0,5.0,5.0,4.0,5.0,,5.0,5.0,2.0,2.0,5.0,2.0,,1.9,2.0,3.0,2.666667,5.333333,5.0,5.0,5.0
104585,831,2020-03-31 16:04:26,PL,21,Female,"Some College, short continuing education or equivalent",Up to 12 years of school,Student,United States,yes,"Philadelphia, Pennsylvania",Single,0.0,Yes,Isolated,2.0,2.0,Program A,,No,4.0,3.0,4.0,3.0,2.0,3.0,3.0,4.0,4.0,3.0,3.0,2.0,5.0,5.0,8.0,1.0,3.0,3.0,3.0,8.0,4.0,5.0,6.0,5.0,6.0,6.0,5.0,6.0,6.0,5.0,1.0,1.0,2.0,6.0,3.0,4.0,4.0,4.0,5.0,5.0,5.0,6.0,1.0,5.0,6.0,6.0,2.0,5.0,,,,,,,,,,,,,,,,,,,,,,,,,,6.0,6.0,5.0,5.0,6.0,6.0,6.0,6.0,6.0,6.0,5.0,6.0,5.0,6.0,5.0,4.0,1.0,1.0,4.0,6.0,2.0,5.0,6.0,6.0,1.0,4.0,,4.0,4.0,6.0,5.0,3.0,3.0,,3.3,3.333333,4.0,3.333333,5.333333,5.666667,5.333333,5.8
104642,1859,2020-03-30 16:12:31,SME,39,Female,"Some College, short continuing education or equivalent",,Self-employed,United States,yes,Mexicana,Married/cohabiting,2.0,Yes,Life carries on with minor changes,,,,Program D,No,4.0,3.0,4.0,5.0,4.0,3.0,4.0,3.0,4.0,2.0,4.0,3.0,3.0,7.0,9.0,5.0,8.0,8.0,10.0,10.0,9.0,4.0,6.0,5.0,6.0,6.0,3.0,6.0,6.0,6.0,6.0,6.0,4.0,6.0,4.0,5.0,6.0,6.0,5.0,4.0,6.0,6.0,4.0,2.0,6.0,6.0,1.0,5.0,6.0,6.0,6.0,6.0,6.0,6.0,99.0,6.0,99.0,6.0,6.0,4.0,6.0,6.0,6.0,6.0,6.0,6.0,6.0,6.0,6.0,4.0,5.0,99.0,Angustia,6.0,6.0,6.0,6.0,6.0,6.0,6.0,6.0,6.0,6.0,6.0,5.0,5.0,6.0,6.0,4.0,2.0,1.0,6.0,5.0,6.0,5.0,6.0,6.0,4.0,6.0,Ejercitarme,5.0,5.0,2.0,5.0,5.0,2.0,,2.8,3.333333,4.0,4.666667,5.333333,3.666667,5.666667,6.0
104679,773,2020-03-30 15:49:45,ZH-T,29,Female,PhD/Doctorate,College degree,Full time employed,United States,yes,"Sunnyvale, CA",Single,0.0,No,Life carries on with minor changes,,,Program A,,No,4.0,4.0,4.0,2.0,2.0,2.0,2.0,1.0,3.0,2.0,4.0,3.0,3.0,6.0,8.0,7.0,6.0,6.0,7.0,2.0,7.0,3.0,4.0,4.0,5.0,5.0,6.0,4.0,4.0,5.0,3.0,4.0,4.0,5.0,5.0,3.0,3.0,2.0,5.0,4.0,4.0,4.0,4.0,4.0,4.0,5.0,4.0,4.0,6.0,6.0,99.0,6.0,5.0,4.0,99.0,99.0,99.0,5.0,5.0,6.0,5.0,6.0,5.0,5.0,6.0,5.0,5.0,6.0,5.0,5.0,6.0,3.0,,3.0,3.0,3.0,4.0,4.0,4.0,4.0,4.0,4.0,3.0,4.0,4.0,5.0,5.0,5.0,3.0,5.0,5.0,3.0,4.0,5.0,4.0,5.0,5.0,3.0,4.0,,5.0,4.0,3.0,3.0,4.0,3.0,,3.6,3.333333,4.666667,2.333333,4.0,3.666667,4.0,3.6
104693,841,2020-03-31 15:48:30,LT,45,Female,"College degree, bachelor, master",Some College or equivalent,Full time employed,United States,yes,Illinois,Single,0.0,Yes,Life carries on with minor changes,0.0,0.0,Program A,,No,3.0,2.0,2.0,4.0,5.0,3.0,5.0,5.0,1.0,3.0,2.0,1.0,2.0,2.0,8.0,4.0,8.0,4.0,4.0,5.0,8.0,6.0,6.0,6.0,6.0,6.0,5.0,6.0,6.0,6.0,1.0,4.0,5.0,4.0,3.0,4.0,5.0,4.0,2.0,5.0,6.0,4.0,4.0,4.0,4.0,5.0,3.0,6.0,,,,,,,,,,,,,,,,,,,,,,,,,,,,,,,,,,,,,,,,,,,,,,,,,,,,,,,,,,,,1.9,1.666667,3.333333,4.666667,5.0,3.666667,5.0,
104697,1122,2020-03-30 15:53:00,EN,50,Male,"Some College, short continuing education or equivalent",Up to 9 years of school,Full time employed,United States,no,michigan,Single,0.0,Yes,Isolated,0.0,0.0,,Program D,No,1.0,3.0,3.0,3.0,3.0,1.0,1.0,2.0,1.0,3.0,5.0,4.0,4.0,5.0,9.0,0.0,,,,,,5.0,5.0,5.0,5.0,5.0,0.0,4.0,6.0,6.0,4.0,4.0,3.0,4.0,3.0,4.0,4.0,3.0,4.0,3.0,4.0,3.0,4.0,4.0,5.0,5.0,3.0,5.0,99.0,5.0,99.0,99.0,5.0,4.0,1.0,99.0,99.0,99.0,6.0,6.0,5.0,4.0,99.0,4.0,5.0,3.0,3.0,4.0,3.0,4.0,3.0,1.0,,4.0,6.0,6.0,4.0,3.0,5.0,4.0,4.0,6.0,4.0,3.0,4.0,4.0,2.0,4.0,4.0,4.0,4.0,4.0,4.0,4.0,4.0,4.0,4.0,4.0,4.0,,4.0,4.0,4.0,3.0,3.0,2.0,,2.7,4.333333,3.333333,3.333333,3.333333,4.0,4.666667,4.6
104702,1317,2020-03-31 15:55:53,EN,49,Female,"College degree, bachelor, master",College degree,Not employed,United States,no,"New York, New York",Married/cohabiting,2.0,Yes,Isolated,1.0,0.0,,Program D,No,2.0,3.0,3.0,4.0,4.0,2.0,4.0,5.0,1.0,1.0,1.0,2.0,3.0,6.0,8.0,4.0,3.0,7.0,7.0,9.0,6.0,4.0,4.0,4.0,5.0,5.0,4.0,5.0,5.0,5.0,2.0,4.0,6.0,2.0,2.0,5.0,6.0,5.0,1.0,5.0,6.0,5.0,2.0,5.0,5.0,4.0,2.0,6.0,3.0,2.0,4.0,5.0,4.0,5.0,2.0,4.0,99.0,5.0,4.0,5.0,4.0,2.0,2.0,1.0,1.0,2.0,5.0,2.0,2.0,1.0,6.0,5.0,,5.0,5.0,5.0,5.0,5.0,5.0,5.0,5.0,5.0,5.0,3.0,5.0,2.0,4.0,5.0,5.0,6.0,6.0,4.0,5.0,4.0,4.0,6.0,3.0,5.0,2.0,,4.0,5.0,5.0,2.0,2.0,2.0,,1.9,2.0,2.0,5.666667,5.333333,5.0,5.0,5.0
104712,670,2020-03-31 15:44:10,EN,42,Female,"College degree, bachelor, master",College degree,Full time employed,United States,no,Michigan,Married/cohabiting,2.0,Yes,Isolated,1.0,2.0,,Program D,No,3.0,3.0,4.0,4.0,3.0,3.0,4.0,3.0,4.0,2.0,3.0,3.0,5.0,7.0,9.0,3.0,7.0,9.0,7.0,10.0,4.0,6.0,6.0,6.0,6.0,6.0,0.0,6.0,5.0,5.0,2.0,4.0,2.0,5.0,5.0,3.0,3.0,2.0,5.0,4.0,6.0,4.0,4.0,5.0,5.0,5.0,4.0,5.0,2.0,5.0,5.0,2.0,5.0,5.0,3.0,2.0,6.0,2.0,2.0,6.0,6.0,5.0,5.0,3.0,5.0,5.0,5.0,4.0,5.0,2.0,5.0,2.0,,,,,,,,,,,,,,,,,,,,,,,,,,,,,,,,,,,,2.9,3.666667,4.666667,2.333333,4.666667,4.333333,4.333333,
104716,102,2020-03-31 15:34:26,EN,26,Female,"College degree, bachelor, master",Some College or equivalent,Full time employed,United States,no,,Other or would rather not say,0.0,No,Isolated,2.0,0.0,,,,,,,,,,,,,,,,,,,,,,,,,,,,,,,,,,,,,,,,,,,,,,,,,,,,,,,,,,,,,,,,,,,,,,,,,,,,,,,,,,,,,,,,,,,,,,,,,,,,,,,,,,,,,,,,,,,,,,
104765,346,2020-03-31 15:31:31,EN,42,Male,"College degree, bachelor, master",Some College or equivalent,Full time employed,United States,no,Maryland,Married/cohabiting,3.0,Yes,Life carries on with minor changes,2.0,3.0,Program B,,No,3.0,3.0,4.0,3.0,3.0,3.0,3.0,3.0,3.0,2.0,4.0,3.0,4.0,5.0,6.0,5.0,3.0,7.0,4.0,1.0,10.0,6.0,6.0,6.0,6.0,6.0,0.0,,,,,,,,,,,,,,,,,,,,,,,,,,,,,,,,,,,,,,,,,,,,,,,,,,,,,,,,,,,,,,,,,,,,,,,,,,,,,,,,,3.0,3.666667,,,,,,
104798,128,2020-03-31 15:23:58,EN,21,Female,"Some College, short continuing education or equivalent",Some College or equivalent,Not employed,United States,no,PA,Single,0.0,Yes,Isolated,4.0,0.0,Program A,,,,,,,,,,,,,,,,,,,,,,,,,,,,,,,,,,,,,,,,,,,,,,,,,,,,,,,,,,,,,,,,,,,,,,,,,,,,,,,,,,,,,,,,,,,,,,,,,,,,,,,,,,,,,,,,,,,,,
104802,16666,2020-03-30 19:59:01,SME,24,Female,"College degree, bachelor, master",,Part time employed,United States,yes,Washington,Single,0.0,No,Isolated,1.0,2.0,Program A,,No,3.0,1.0,4.0,5.0,5.0,2.0,5.0,4.0,1.0,1.0,1.0,1.0,1.0,8.0,8.0,9.0,10.0,8.0,10.0,10.0,9.0,6.0,6.0,6.0,6.0,6.0,9.0,1.0,6.0,6.0,2.0,4.0,2.0,4.0,2.0,5.0,4.0,5.0,5.0,6.0,5.0,6.0,1.0,5.0,6.0,6.0,1.0,6.0,5.0,2.0,99.0,6.0,2.0,2.0,1.0,1.0,2.0,5.0,5.0,5.0,5.0,5.0,3.0,4.0,1.0,1.0,5.0,2.0,1.0,1.0,4.0,5.0,,6.0,5.0,6.0,6.0,6.0,6.0,6.0,6.0,6.0,6.0,5.0,2.0,4.0,2.0,4.0,4.0,1.0,1.0,4.0,4.0,3.0,5.0,5.0,5.0,2.0,5.0,,5.0,5.0,5.0,2.0,2.0,4.0,,1.7,1.0,2.666667,3.666667,5.666667,5.666667,6.0,5.9
104844,805,2020-03-31 15:29:33,EN,38,Female,"College degree, bachelor, master",College degree,Full time employed,United States,no,NJ,Married/cohabiting,0.0,Yes,Life carries on with minor changes,3.0,0.0,,Program D,No,3.0,3.0,3.0,4.0,4.0,2.0,3.0,4.0,3.0,3.0,1.0,2.0,3.0,4.0,8.0,4.0,5.0,6.0,3.0,5.0,2.0,6.0,6.0,6.0,5.0,5.0,4.0,5.0,5.0,3.0,4.0,3.0,2.0,4.0,4.0,6.0,5.0,5.0,3.0,4.0,4.0,5.0,1.0,5.0,6.0,5.0,2.0,6.0,2.0,2.0,99.0,3.0,4.0,5.0,5.0,2.0,99.0,6.0,6.0,6.0,6.0,5.0,99.0,2.0,3.0,2.0,2.0,6.0,5.0,3.0,6.0,2.0,,6.0,5.0,6.0,6.0,6.0,6.0,6.0,6.0,6.0,6.0,4.0,5.0,6.0,5.0,2.0,3.0,1.0,1.0,5.0,4.0,4.0,4.0,6.0,4.0,4.0,5.0,,6.0,6.0,1.0,4.0,4.0,2.0,"As an essential worker, I am concerned about my health as well as that of my employees. It seems that there is not enough equipment available to protect everyone who needs it.",2.6,2.0,3.0,4.666667,4.333333,5.666667,5.333333,5.9
104918,892,2020-03-30 15:23:01,ZH-T,38,Male,PhD/Doctorate,College degree,Student,United States,yes,"Saint Louis, Missouri",Married/cohabiting,3.0,No,Life carries on with minor changes,,,Program B,,,3.0,3.0,1.0,4.0,4.0,2.0,4.0,4.0,2.0,2.0,1.0,2.0,1.0,5.0,7.0,5.0,7.0,7.0,6.0,3.0,5.0,3.0,3.0,4.0,6.0,5.0,4.0,5.0,5.0,5.0,2.0,5.0,5.0,4.0,3.0,5.0,5.0,4.0,4.0,4.0,4.0,4.0,2.0,5.0,4.0,4.0,3.0,5.0,5.0,2.0,3.0,5.0,4.0,2.0,1.0,1.0,6.0,6.0,3.0,4.0,4.0,4.0,1.0,1.0,2.0,1.0,2.0,2.0,5.0,2.0,4.0,3.0,,5.0,5.0,5.0,5.0,5.0,4.0,5.0,5.0,5.0,5.0,4.0,5.0,5.0,4.0,5.0,4.0,4.0,4.0,5.0,5.0,4.0,4.0,6.0,5.0,6.0,5.0,,4.0,4.0,4.0,4.0,4.0,3.0,,2.1,1.333333,3.0,4.0,4.0,4.666667,4.333333,4.9
104926,2252,2020-03-30 15:44:59,SCU,57,Female,"Some College, short continuing education or equivalent",College degree,Full time employed,United States,no,Católica,Married/cohabiting,0.0,Yes,Isolated,1.0,0.0,Program A,,No,4.0,4.0,4.0,3.0,3.0,2.0,3.0,2.0,4.0,4.0,1.0,1.0,1.0,8.0,10.0,4.0,7.0,4.0,4.0,10.0,8.0,6.0,6.0,6.0,6.0,6.0,2.0,5.0,6.0,6.0,4.0,4.0,2.0,5.0,5.0,4.0,6.0,5.0,3.0,5.0,5.0,5.0,2.0,5.0,5.0,5.0,2.0,5.0,5.0,5.0,99.0,2.0,5.0,5.0,5.0,5.0,99.0,5.0,5.0,5.0,5.0,5.0,99.0,5.0,5.0,2.0,2.0,5.0,5.0,5.0,5.0,5.0,No poder ayudar a mi hija en su próximo parto y primeros días del puerperio,5.0,5.0,5.0,5.0,5.0,5.0,5.0,5.0,5.0,5.0,5.0,2.0,5.0,5.0,5.0,4.0,2.0,2.0,5.0,5.0,5.0,5.0,5.0,5.0,5.0,5.0,,5.0,2.0,3.0,5.0,5.0,5.0,Soy first responder y siento temor de contagiar a mi esposo y mi hija,3.5,1.0,4.333333,5.0,5.0,5.0,5.0,5.0
104942,530,2020-03-30 15:15:01,EN,28,Female,"College degree, bachelor, master",College degree,Full time employed,United States,no,Michigan,Married/cohabiting,0.0,No,Isolated,1.0,0.0,,Program D,No,2.0,2.0,3.0,4.0,1.0,1.0,4.0,3.0,2.0,2.0,2.0,2.0,3.0,6.0,8.0,5.0,7.0,8.0,6.0,10.0,3.0,4.0,6.0,4.0,4.0,4.0,2.0,5.0,5.0,5.0,2.0,3.0,4.0,2.0,2.0,5.0,5.0,4.0,4.0,4.0,4.0,4.0,3.0,3.0,4.0,5.0,4.0,5.0,2.0,1.0,99.0,2.0,3.0,3.0,99.0,1.0,99.0,4.0,3.0,5.0,5.0,5.0,1.0,1.0,3.0,2.0,2.0,2.0,3.0,2.0,4.0,2.0,,5.0,5.0,5.0,5.0,5.0,5.0,5.0,6.0,4.0,5.0,2.0,3.0,5.0,2.0,5.0,3.0,1.0,1.0,5.0,2.0,3.0,2.0,4.0,5.0,1.0,2.0,,4.0,4.0,4.0,2.0,3.0,3.0,,2.4,2.333333,2.0,4.0,4.0,3.666667,4.333333,5.0
104944,1094,2020-03-30 15:24:13,EN,42,Female,"Some College, short continuing education or equivalent",Some College or equivalent,Full time employed,United States,no,Mi,Single,0.0,Yes,Life carries on as usual,0.0,0.0,,Program D,No,4.0,3.0,4.0,4.0,2.0,3.0,3.0,3.0,3.0,2.0,2.0,2.0,4.0,,,0.0,6.0,6.0,6.0,8.0,0.0,4.0,6.0,6.0,6.0,6.0,0.0,1.0,6.0,6.0,2.0,1.0,3.0,4.0,4.0,4.0,4.0,3.0,5.0,4.0,5.0,4.0,5.0,5.0,5.0,5.0,2.0,5.0,6.0,4.0,99.0,5.0,3.0,4.0,3.0,99.0,99.0,6.0,5.0,5.0,6.0,6.0,1.0,3.0,4.0,4.0,4.0,3.0,5.0,4.0,4.0,99.0,,4.0,4.0,4.0,4.0,4.0,4.0,5.0,4.0,4.0,4.0,4.0,2.0,3.0,5.0,3.0,4.0,2.0,2.0,4.0,4.0,4.0,4.0,4.0,4.0,4.0,1.0,,,5.0,,,,,,3.1,2.666667,3.666667,3.0,4.333333,4.0,5.0,4.1
104958,416,2020-03-31 15:12:09,VI,21,Female,Up to 12 years of school,Up to 6 years of school,Full time employed,United States,yes,,Single,0.0,Yes,Life carries on with minor changes,2.0,2.0,Program B,,No,4.0,1.0,4.0,5.0,4.0,1.0,1.0,4.0,1.0,1.0,3.0,3.0,2.0,6.0,8.0,8.0,4.0,5.0,6.0,8.0,10.0,3.0,6.0,6.0,6.0,6.0,5.0,6.0,5.0,6.0,1.0,5.0,3.0,1.0,1.0,4.0,6.0,6.0,1.0,5.0,6.0,5.0,5.0,6.0,4.0,3.0,4.0,5.0,,,,,,,,,,,,,,,,,,,,,,,,,,,,,,,,,,,,,,,,,,,,,,,,,,,,,,,,,,,,2.2,2.666667,1.666667,6.0,5.333333,4.0,3.666667,
104967,7002,2020-03-30 17:00:46,EN,25,Female,"College degree, bachelor, master",College degree,Not employed,United States,no,Massachusetts,Other or would rather not say,0.0,Yes,Isolated,3.0,0.0,,Program C,No,2.0,1.0,2.0,4.0,4.0,1.0,5.0,4.0,1.0,1.0,3.0,2.0,3.0,5.0,7.0,5.0,1.0,6.0,6.0,7.0,1.0,3.0,4.0,4.0,6.0,6.0,1.0,5.0,5.0,5.0,2.0,4.0,6.0,3.0,4.0,5.0,4.0,2.0,6.0,2.0,6.0,4.0,2.0,2.0,4.0,5.0,3.0,6.0,1.0,1.0,99.0,1.0,1.0,3.0,99.0,5.0,99.0,2.0,1.0,2.0,2.0,2.0,1.0,2.0,1.0,4.0,2.0,2.0,1.0,1.0,2.0,1.0,,6.0,6.0,6.0,6.0,6.0,6.0,6.0,6.0,6.0,6.0,5.0,6.0,5.0,1.0,5.0,2.0,1.0,1.0,5.0,5.0,1.0,5.0,5.0,5.0,1.0,3.0,,5.0,4.0,3.0,4.0,4.0,3.0,,1.5,2.666667,3.0,2.333333,4.0,3.666667,5.0,6.0
105010,954,2020-03-30 15:16:43,EN,59,Female,"College degree, bachelor, master",Some College or equivalent,Full time employed,United States,no,Fl,Married/cohabiting,0.0,Yes,Isolated,1.0,0.0,Program B,,No,2.0,2.0,3.0,4.0,3.0,2.0,3.0,4.0,2.0,2.0,2.0,3.0,3.0,7.0,8.0,3.0,8.0,6.0,8.0,7.0,3.0,5.0,5.0,5.0,5.0,5.0,2.0,4.0,5.0,5.0,3.0,5.0,5.0,5.0,4.0,5.0,3.0,2.0,5.0,4.0,5.0,5.0,2.0,5.0,6.0,4.0,4.0,5.0,3.0,5.0,99.0,99.0,5.0,4.0,2.0,5.0,99.0,6.0,3.0,5.0,5.0,6.0,6.0,5.0,3.0,3.0,1.0,5.0,5.0,3.0,6.0,99.0,,5.0,5.0,5.0,5.0,5.0,5.0,5.0,5.0,5.0,5.0,4.0,4.0,5.0,5.0,4.0,5.0,1.0,3.0,4.0,4.0,5.0,5.0,5.0,5.0,5.0,2.0,,4.0,3.0,2.0,2.0,4.0,4.0,,2.3,2.666667,3.666667,2.333333,4.666667,5.333333,4.0,5.0
105019,420,2020-03-31 15:06:50,LT,32,Female,"College degree, bachelor, master",College degree,Not employed,United States,yes,Florida,Married/cohabiting,1.0,No,Life carries on with minor changes,1.0,1.0,,Program D,,,,,,,,,,,,,,,,,,,,,,,,,,,,,,,,,,,,,,,,,,,,,,,,,,,,,,,,,,,,,,,,,,,,,,,,,,,,,,,,,,,,,,,,,,,,,,,,,,,,,,,,,,,,,,,,,,,,
105042,642,2020-03-30 15:07:15,EN,21,Female,"Some College, short continuing education or equivalent",Some College or equivalent,Full time employed,United States,no,New York,Single,0.0,Yes,Isolated,1.0,,,Program D,No,5.0,4.0,4.0,3.0,1.0,4.0,2.0,1.0,5.0,3.0,2.0,5.0,5.0,3.0,6.0,,,2.0,4.0,5.0,,2.0,5.0,5.0,5.0,6.0,0.0,4.0,3.0,1.0,4.0,4.0,3.0,5.0,5.0,3.0,6.0,6.0,1.0,5.0,6.0,5.0,3.0,5.0,5.0,3.0,2.0,5.0,6.0,5.0,99.0,6.0,6.0,6.0,99.0,6.0,99.0,5.0,5.0,5.0,5.0,5.0,6.0,6.0,5.0,6.0,6.0,5.0,4.0,4.0,6.0,6.0,,5.0,1.0,4.0,5.0,5.0,5.0,5.0,5.0,5.0,5.0,3.0,4.0,6.0,5.0,6.0,5.0,2.0,1.0,5.0,4.0,4.0,4.0,5.0,5.0,6.0,4.0,,4.0,4.0,5.0,5.0,4.0,1.0,,4.2,4.0,4.666667,6.0,5.333333,4.666667,4.333333,4.5
105049,960,2020-03-30 15:11:57,EN,44,Female,Up to 12 years of school,Up to 12 years of school,Full time employed,United States,no,Rhode Island,Single,0.0,Yes,Isolated,0.0,0.0,Program A,,No,2.0,2.0,3.0,4.0,3.0,2.0,4.0,4.0,1.0,2.0,3.0,3.0,4.0,5.0,8.0,4.0,2.0,4.0,0.0,8.0,2.0,4.0,5.0,4.0,6.0,6.0,2.0,5.0,6.0,5.0,2.0,4.0,5.0,4.0,4.0,4.0,4.0,2.0,5.0,3.0,5.0,3.0,5.0,4.0,4.0,5.0,5.0,6.0,99.0,4.0,99.0,99.0,4.0,3.0,99.0,99.0,99.0,6.0,4.0,4.0,4.0,4.0,4.0,3.0,4.0,5.0,6.0,5.0,3.0,2.0,5.0,99.0,,5.0,5.0,5.0,5.0,4.0,5.0,4.0,5.0,5.0,4.0,2.0,2.0,5.0,2.0,5.0,5.0,1.0,1.0,6.0,2.0,2.0,4.0,4.0,4.0,1.0,2.0,,2.0,4.0,4.0,3.0,5.0,3.0,,2.1,3.333333,3.666667,2.666667,3.666667,3.333333,4.333333,4.7
105052,381,2020-03-31 15:01:55,EN,26,Female,"College degree, bachelor, master",Some College or equivalent,Student,United States,no,Arizona,Single,1.0,Yes,Isolated,3.0,1.0,Program A,,No,4.0,4.0,4.0,3.0,2.0,4.0,2.0,2.0,4.0,4.0,3.0,3.0,5.0,6.0,8.0,5.0,6.0,6.0,7.0,8.0,3.0,5.0,6.0,6.0,5.0,5.0,0.0,4.0,4.0,4.0,2.0,2.0,4.0,5.0,5.0,3.0,3.0,2.0,4.0,4.0,4.0,4.0,4.0,4.0,4.0,4.0,4.0,4.0,3.0,5.0,99.0,6.0,4.0,3.0,1.0,6.0,6.0,3.0,5.0,6.0,99.0,6.0,5.0,4.0,6.0,6.0,6.0,4.0,3.0,3.0,5.0,2.0,,,,,,,,,,,,,,,,,,,,,,,,,,,,,,,,,,,,3.9,3.666667,4.666667,2.666667,4.0,3.666667,3.666667,
105071,913,2020-03-30 15:08:02,EN,41,Female,"College degree, bachelor, master",Up to 12 years of school,Full time employed,United States,no,Michigan,Married/cohabiting,2.0,Yes,Isolated,1.0,2.0,,Program D,No,2.0,3.0,3.0,4.0,3.0,2.0,4.0,3.0,2.0,1.0,3.0,1.0,5.0,8.0,10.0,3.0,7.0,7.0,9.0,5.0,8.0,2.0,3.0,2.0,5.0,5.0,6.0,4.0,6.0,5.0,4.0,2.0,4.0,3.0,2.0,4.0,6.0,6.0,1.0,4.0,4.0,2.0,3.0,6.0,6.0,4.0,2.0,5.0,3.0,4.0,2.0,1.0,2.0,4.0,6.0,3.0,3.0,4.0,4.0,5.0,6.0,5.0,3.0,4.0,4.0,3.0,2.0,3.0,3.0,3.0,5.0,4.0,,6.0,6.0,6.0,6.0,6.0,6.0,6.0,6.0,5.0,6.0,4.0,4.0,6.0,2.0,5.0,2.0,1.0,4.0,4.0,6.0,2.0,4.0,4.0,4.0,6.0,5.0,,6.0,6.0,3.0,2.0,5.0,4.0,Concern of the irrational behavior of others,2.3,3.0,2.666667,6.0,3.333333,5.333333,4.666667,5.9
105105,725,2020-03-30 15:02:12,EN,66,Female,"College degree, bachelor, master",Up to 12 years of school,Retired,United States,no,MI,Married/cohabiting,0.0,Yes,Isolated,1.0,0.0,Program A,,No,2.0,3.0,3.0,4.0,3.0,2.0,3.0,3.0,1.0,1.0,3.0,1.0,3.0,7.0,8.0,1.0,8.0,3.0,2.0,4.0,1.0,6.0,6.0,6.0,6.0,6.0,1.0,6.0,6.0,6.0,1.0,4.0,4.0,4.0,4.0,6.0,5.0,5.0,4.0,5.0,6.0,1.0,1.0,4.0,5.0,5.0,2.0,4.0,99.0,99.0,99.0,99.0,4.0,5.0,99.0,99.0,99.0,6.0,4.0,6.0,6.0,4.0,99.0,2.0,1.0,99.0,4.0,99.0,3.0,99.0,5.0,4.0,,5.0,4.0,4.0,5.0,5.0,5.0,5.0,5.0,4.0,5.0,2.0,3.0,5.0,2.0,,5.0,1.0,1.0,4.0,4.0,3.0,5.0,1.0,4.0,4.0,5.0,,6.0,6.0,6.0,5.0,6.0,5.0,,2.3,2.333333,3.0,4.333333,4.0,5.0,4.666667,4.7
105147,193,2020-03-31 14:49:29,EN,34,Female,"College degree, bachelor, master",College degree,Student,United States,yes,Iowa,Married/cohabiting,0.0,Yes,Isolated,2.0,0.0,Program B,,,,,,,,,,,,,,,,,,,,,,,,,,,,,,,,,,,,,,,,,,,,,,,,,,,,,,,,,,,,,,,,,,,,,,,,,,,,,,,,,,,,,,,,,,,,,,,,,,,,,,,,,,,,,,,,,,,,,
105152,485,2020-03-31 14:54:02,EN,21,Female,"College degree, bachelor, master",College degree,Student,United States,no,New Hampshire,Single,0.0,Yes,Isolated,4.0,0.0,Program A,,No,3.0,4.0,5.0,2.0,2.0,5.0,3.0,2.0,2.0,4.0,4.0,2.0,3.0,4.0,7.0,0.0,4.0,3.0,2.0,8.0,1.0,4.0,6.0,6.0,5.0,6.0,0.0,5.0,5.0,6.0,4.0,3.0,2.0,5.0,4.0,5.0,4.0,4.0,3.0,5.0,6.0,5.0,3.0,5.0,6.0,4.0,4.0,4.0,99.0,4.0,99.0,6.0,5.0,5.0,5.0,6.0,99.0,2.0,5.0,6.0,6.0,5.0,3.0,5.0,2.0,5.0,5.0,5.0,4.0,4.0,5.0,2.0,,5.0,5.0,4.0,4.0,5.0,4.0,4.0,5.0,4.0,5.0,3.0,4.0,5.0,1.0,5.0,4.0,6.0,6.0,5.0,5.0,4.0,4.0,5.0,6.0,5.0,3.0,,3.0,5.0,6.0,4.0,3.0,1.0,,3.8,3.0,3.666667,4.0,5.333333,5.0,3.666667,4.5
105157,976,2020-03-30 15:01:17,EN,38,Male,PhD/Doctorate,College degree,Full time employed,United States,no,Washington,Married/cohabiting,1.0,Yes,Isolated,1.0,1.0,Program A,,No,2.0,2.0,2.0,5.0,4.0,2.0,5.0,4.0,3.0,2.0,2.0,2.0,4.0,7.0,9.0,1.0,7.0,9.0,2.0,9.0,0.0,6.0,6.0,4.0,5.0,5.0,,5.0,5.0,5.0,5.0,1.0,3.0,4.0,3.0,5.0,6.0,3.0,2.0,6.0,6.0,6.0,3.0,3.0,6.0,6.0,2.0,5.0,1.0,2.0,1.0,3.0,3.0,2.0,2.0,2.0,1.0,5.0,5.0,99.0,99.0,99.0,2.0,2.0,3.0,5.0,4.0,1.0,4.0,2.0,4.0,3.0,,6.0,6.0,6.0,6.0,6.0,6.0,6.0,6.0,6.0,6.0,1.0,1.0,6.0,1.0,6.0,5.0,4.0,1.0,5.0,6.0,2.0,1.0,6.0,1.0,2.0,2.0,,2.0,6.0,3.0,5.0,6.0,5.0,,1.9,2.666667,3.0,4.666667,6.0,4.333333,5.333333,6.0
105173,602,2020-03-30 14:52:57,EN,32,Female,PhD/Doctorate,Up to 12 years of school,Full time employed,United States,yes,Wisconsin,Single,0.0,Yes,Isolated,1.0,0.0,,Program D,No,3.0,2.0,5.0,4.0,3.0,3.0,4.0,3.0,3.0,2.0,5.0,4.0,4.0,10.0,10.0,6.0,6.0,6.0,3.0,4.0,4.0,3.0,6.0,2.0,6.0,6.0,3.0,6.0,5.0,6.0,2.0,4.0,6.0,5.0,4.0,6.0,6.0,6.0,1.0,6.0,6.0,6.0,1.0,5.0,5.0,6.0,2.0,6.0,2.0,1.0,99.0,6.0,1.0,6.0,1.0,2.0,99.0,6.0,1.0,6.0,6.0,6.0,1.0,1.0,1.0,6.0,5.0,6.0,1.0,1.0,6.0,6.0,,6.0,6.0,6.0,6.0,6.0,6.0,6.0,6.0,6.0,6.0,3.0,6.0,6.0,6.0,6.0,4.0,1.0,1.0,6.0,3.0,4.0,3.0,5.0,6.0,3.0,2.0,,6.0,6.0,6.0,6.0,6.0,1.0,,2.8,4.333333,3.333333,6.0,6.0,5.333333,5.666667,6.0
105187,684,2020-03-30 14:52:50,EN,32,Female,"College degree, bachelor, master",College degree,Full time employed,United States,no,TX,Single,0.0,Yes,Life carries on with minor changes,0.0,0.0,Program A,,No,3.0,2.0,4.0,3.0,3.0,2.0,3.0,4.0,3.0,3.0,3.0,3.0,3.0,2.0,7.0,,,,1.0,5.0,,6.0,6.0,6.0,6.0,6.0,0.0,4.0,3.0,4.0,5.0,1.0,4.0,4.0,5.0,4.0,5.0,4.0,3.0,1.0,6.0,5.0,5.0,4.0,5.0,5.0,1.0,5.0,3.0,4.0,99.0,5.0,5.0,6.0,2.0,5.0,99.0,6.0,4.0,5.0,5.0,5.0,4.0,4.0,4.0,5.0,4.0,5.0,4.0,4.0,6.0,5.0,,5.0,6.0,6.0,6.0,6.0,6.0,6.0,6.0,6.0,6.0,3.0,6.0,6.0,3.0,6.0,4.0,1.0,1.0,4.0,4.0,3.0,3.0,5.0,6.0,1.0,4.0,,4.0,4.0,4.0,4.0,5.0,2.0,,2.8,3.0,4.0,4.333333,4.0,3.666667,5.333333,5.9
105188,1389,2020-03-30 15:04:32,EN,53,Female,"College degree, bachelor, master",Some College or equivalent,Full time employed,United States,no,MI,Divorced/widowed,2.0,Yes,Isolated,2.0,0.0,Program B,,No,4.0,3.0,4.0,4.0,3.0,3.0,2.0,2.0,3.0,3.0,3.0,1.0,3.0,8.0,10.0,6.0,6.0,6.0,8.0,10.0,4.0,6.0,6.0,,,6.0,1.0,5.0,6.0,6.0,2.0,5.0,2.0,5.0,2.0,6.0,4.0,2.0,5.0,4.0,6.0,3.0,1.0,6.0,6.0,4.0,2.0,6.0,1.0,6.0,1.0,1.0,2.0,3.0,99.0,2.0,99.0,4.0,5.0,5.0,5.0,4.0,4.0,2.0,1.0,2.0,4.0,2.0,2.0,2.0,4.0,99.0,,6.0,5.0,6.0,4.0,4.0,6.0,5.0,4.0,5.0,6.0,2.0,4.0,4.0,4.0,5.0,3.0,1.0,1.0,5.0,5.0,5.0,6.0,4.0,2.0,1.0,4.0,,4.0,2.0,6.0,2.0,2.0,5.0,,3.3,2.333333,2.666667,2.666667,4.333333,6.0,5.0,5.1
105189,498,2020-03-31 14:49:42,EN,37,Female,"College degree, bachelor, master",College degree,Self-employed,United States,no,Michigan,Married/cohabiting,2.0,No,Life carries on with minor changes,1.0,2.0,,Program C,No,3.0,4.0,3.0,3.0,4.0,2.0,3.0,4.0,3.0,2.0,3.0,2.0,3.0,5.0,6.0,3.0,5.0,4.0,4.0,6.0,2.0,5.0,6.0,5.0,5.0,6.0,2.0,5.0,4.0,4.0,2.0,2.0,4.0,5.0,5.0,3.0,3.0,3.0,5.0,5.0,5.0,5.0,3.0,5.0,5.0,3.0,3.0,5.0,,,,,,,,,,,,,,,,,,,,,,,,,,,,,,,,,,,,,,,,,,,,,,,,,,,,,,,,,,,,2.7,2.666667,4.666667,2.666667,5.0,4.666667,4.0,
105194,660,2020-03-31 14:51:42,EN,57,Female,PhD/Doctorate,Up to 12 years of school,Full time employed,United States,no,Michigan,Married/cohabiting,1.0,Yes,Isolated,2.0,0.0,Program A,,No,4.0,2.0,5.0,4.0,2.0,1.0,4.0,2.0,3.0,1.0,2.0,3.0,3.0,3.0,8.0,0.0,5.0,4.0,1.0,7.0,1.0,5.0,5.0,6.0,6.0,6.0,0.0,5.0,6.0,6.0,1.0,2.0,2.0,4.0,3.0,5.0,5.0,3.0,5.0,4.0,6.0,6.0,4.0,5.0,5.0,6.0,4.0,5.0,1.0,5.0,5.0,2.0,,1.0,4.0,2.0,1.0,5.0,3.0,2.0,4.0,5.0,3.0,5.0,1.0,1.0,2.0,1.0,2.0,2.0,5.0,99.0,,6.0,6.0,6.0,6.0,6.0,6.0,6.0,6.0,6.0,6.0,2.0,3.0,5.0,2.0,5.0,3.0,4.0,1.0,5.0,4.0,2.0,2.0,2.0,2.0,4.0,1.0,,2.0,5.0,2.0,2.0,4.0,4.0,,2.8,2.666667,3.0,3.333333,5.333333,4.333333,4.666667,6.0
105209,1477,2020-03-30 15:03:40,LT,62,Female,"College degree, bachelor, master",Up to 9 years of school,Retired,United States,yes,Georgia,Divorced/widowed,0.0,Yes,Life carries on with minor changes,0.0,0.0,Program A,,Yes,2.0,3.0,3.0,4.0,4.0,3.0,4.0,4.0,2.0,2.0,2.0,3.0,3.0,9.0,10.0,9.0,9.0,8.0,8.0,8.0,9.0,5.0,5.0,5.0,5.0,5.0,5.0,4.0,5.0,5.0,3.0,4.0,4.0,3.0,3.0,5.0,3.0,5.0,5.0,3.0,5.0,3.0,3.0,5.0,4.0,4.0,4.0,5.0,2.0,1.0,1.0,2.0,2.0,1.0,2.0,2.0,1.0,2.0,3.0,2.0,1.0,3.0,2.0,1.0,3.0,2.0,2.0,2.0,3.0,2.0,1.0,4.0,,5.0,5.0,5.0,5.0,6.0,4.0,5.0,5.0,4.0,5.0,4.0,2.0,6.0,2.0,5.0,5.0,2.0,2.0,5.0,5.0,4.0,5.0,5.0,5.0,5.0,5.0,,4.0,4.0,3.0,4.0,4.0,4.0,,2.3,2.666667,2.666667,3.333333,3.666667,4.333333,4.0,4.9
105237,1241,2020-03-30 14:56:32,EN,40,Female,"College degree, bachelor, master",Some College or equivalent,Full time employed,United States,no,Nevada,Single,0.0,Yes,Isolated,0.0,0.0,,Program C,No,2.0,2.0,3.0,4.0,3.0,2.0,5.0,3.0,2.0,2.0,5.0,4.0,4.0,3.0,5.0,2.0,5.0,5.0,4.0,9.0,3.0,4.0,6.0,4.0,6.0,6.0,1.0,6.0,5.0,5.0,3.0,2.0,5.0,2.0,2.0,5.0,5.0,4.0,3.0,6.0,6.0,6.0,2.0,5.0,5.0,5.0,1.0,6.0,5.0,5.0,99.0,5.0,4.0,6.0,99.0,99.0,99.0,6.0,3.0,2.0,2.0,5.0,3.0,4.0,1.0,6.0,6.0,2.0,2.0,1.0,6.0,5.0,,6.0,5.0,6.0,6.0,6.0,5.0,6.0,6.0,6.0,6.0,4.0,5.0,6.0,3.0,4.0,4.0,1.0,1.0,4.0,4.0,4.0,3.0,4.0,5.0,3.0,3.0,,5.0,4.0,4.0,3.0,3.0,4.0,"The uncertainty around how people in the community will react to not knowing where their next paychecks will come from or when they will have a job again while not being able to get out as much as usual, expend energy in typical ways (the gym), etc.",2.2,4.333333,2.0,4.333333,6.0,5.0,5.666667,5.8
105241,369,2020-03-31 14:41:49,ZH-T,46,Female,PhD/Doctorate,Up to 9 years of school,Part time employed,United States,no,California,Married/cohabiting,2.0,No,Isolated,1.0,2.0,,Program D,No,2.0,2.0,3.0,5.0,2.0,2.0,4.0,4.0,2.0,2.0,1.0,2.0,1.0,8.0,8.0,4.0,8.0,7.0,8.0,,5.0,5.0,5.0,5.0,5.0,5.0,4.0,5.0,5.0,5.0,3.0,5.0,5.0,5.0,5.0,5.0,4.0,4.0,3.0,5.0,4.0,3.0,,4.0,5.0,5.0,3.0,5.0,,,,,,,,,,,,,,,,,,,,,,,,,,,,,,,,,,,,,,,,,,,,,,,,,,,,,,,,,,,,2.2,1.333333,4.0,4.0,4.0,4.5,4.666667,
105261,735,2020-03-30 14:46:09,ZH-T,31,Male,PhD/Doctorate,College degree,Full time employed,United States,yes,Texas,Married/cohabiting,0.0,Yes,Isolated,0.0,0.0,,Program C,No,4.0,2.0,3.0,4.0,2.0,1.0,4.0,3.0,1.0,1.0,3.0,2.0,4.0,5.0,5.0,5.0,8.0,8.0,8.0,1.0,2.0,6.0,6.0,6.0,5.0,3.0,0.0,3.0,6.0,6.0,6.0,2.0,6.0,6.0,6.0,3.0,4.0,5.0,2.0,5.0,5.0,4.0,1.0,6.0,6.0,6.0,4.0,5.0,99.0,6.0,99.0,6.0,6.0,4.0,1.0,6.0,99.0,3.0,6.0,6.0,6.0,6.0,3.0,5.0,2.0,6.0,5.0,6.0,6.0,2.0,4.0,3.0,,1.0,1.0,1.0,5.0,1.0,3.0,1.0,2.0,2.0,2.0,1.0,5.0,6.0,1.0,6.0,6.0,5.0,6.0,6.0,5.0,5.0,6.0,6.0,6.0,3.0,5.0,,6.0,6.0,6.0,6.0,6.0,1.0,,2.3,3.0,5.333333,4.666667,4.666667,6.0,4.666667,1.9
105264,1196,2020-03-30 14:53:25,ZH-T,34,Male,PhD/Doctorate,College degree,Student,United States,yes,<U+7D10><U+7D04><U+5DDE>,Other or would rather not say,0.0,Yes,Isolated,2.0,2.0,Program B,,,5.0,5.0,4.0,3.0,2.0,4.0,2.0,2.0,4.0,4.0,3.0,3.0,5.0,3.0,5.0,3.0,3.0,2.0,,,5.0,4.0,4.0,4.0,6.0,6.0,0.0,6.0,6.0,6.0,2.0,6.0,4.0,6.0,2.0,6.0,6.0,5.0,2.0,6.0,5.0,5.0,6.0,4.0,5.0,6.0,3.0,6.0,99.0,6.0,99.0,99.0,6.0,6.0,99.0,4.0,5.0,6.0,99.0,6.0,1.0,5.0,6.0,6.0,5.0,6.0,6.0,1.0,6.0,3.0,4.0,6.0,,5.0,5.0,5.0,5.0,5.0,5.0,5.0,6.0,5.0,5.0,5.0,5.0,5.0,6.0,5.0,5.0,4.0,6.0,4.0,4.0,2.0,5.0,2.0,6.0,5.0,6.0,,5.0,5.0,5.0,1.0,5.0,1.0,,4.1,3.666667,3.0,5.333333,5.333333,3.333333,5.333333,5.1
105276,590,2020-03-30 14:42:38,EN,34,Female,"College degree, bachelor, master",Up to 12 years of school,Full time employed,United States,no,Alabama,Married/cohabiting,2.0,No,Isolated,2.0,2.0,,Program C,No,4.0,4.0,4.0,4.0,2.0,3.0,3.0,3.0,4.0,4.0,4.0,4.0,4.0,7.0,9.0,2.0,3.0,3.0,3.0,6.0,1.0,4.0,6.0,6.0,5.0,5.0,0.0,5.0,6.0,6.0,4.0,4.0,4.0,2.0,5.0,5.0,5.0,5.0,2.0,3.0,6.0,4.0,1.0,5.0,6.0,4.0,2.0,5.0,6.0,5.0,4.0,99.0,4.0,5.0,1.0,2.0,6.0,99.0,3.0,4.0,3.0,6.0,2.0,4.0,4.0,6.0,6.0,2.0,5.0,5.0,5.0,6.0,,5.0,5.0,2.0,5.0,5.0,5.0,5.0,6.0,4.0,5.0,3.0,6.0,6.0,4.0,3.0,6.0,1.0,1.0,5.0,4.0,4.0,2.0,4.0,4.0,1.0,5.0,,4.0,6.0,6.0,5.0,6.0,5.0,,3.5,4.0,3.0,5.0,4.333333,5.666667,4.666667,4.7
105280,589,2020-03-31 14:42:06,EN,43,Female,"College degree, bachelor, master",Some College or equivalent,Full time employed,United States,no,NV,Single,0.0,No,Isolated,1.0,0.0,Program B,,No,3.0,2.0,5.0,4.0,3.0,3.0,4.0,3.0,2.0,3.0,3.0,4.0,4.0,4.0,9.0,2.0,4.0,4.0,1.0,6.0,0.0,1.0,4.0,4.0,6.0,6.0,0.0,6.0,5.0,5.0,3.0,3.0,3.0,6.0,4.0,4.0,6.0,6.0,5.0,6.0,6.0,6.0,5.0,4.0,6.0,5.0,4.0,6.0,5.0,6.0,99.0,99.0,4.0,6.0,99.0,99.0,99.0,5.0,3.0,4.0,6.0,6.0,6.0,6.0,6.0,5.0,6.0,99.0,5.0,1.0,6.0,6.0,,5.0,5.0,5.0,5.0,5.0,5.0,5.0,5.0,6.0,5.0,5.0,3.0,6.0,1.0,6.0,6.0,3.0,3.0,6.0,6.0,6.0,6.0,6.0,6.0,3.0,6.0,,2.0,6.0,4.0,4.0,3.0,5.0,,2.8,3.666667,4.333333,4.666667,6.0,4.0,4.666667,5.1
105293,700,2020-03-30 14:43:15,EN,48,Female,"College degree, bachelor, master",Some College or equivalent,Full time employed,United States,no,Mi,Married/cohabiting,1.0,Not sure,Life carries on with minor changes,2.0,1.0,,Program D,No,2.0,1.0,3.0,5.0,3.0,1.0,3.0,3.0,3.0,1.0,1.0,1.0,3.0,5.0,5.0,0.0,5.0,5.0,10.0,5.0,0.0,6.0,6.0,6.0,6.0,6.0,0.0,5.0,6.0,6.0,2.0,3.0,5.0,4.0,4.0,4.0,4.0,4.0,4.0,4.0,6.0,3.0,4.0,4.0,6.0,4.0,3.0,6.0,3.0,4.0,6.0,5.0,2.0,5.0,99.0,5.0,5.0,5.0,5.0,4.0,4.0,5.0,4.0,5.0,99.0,4.0,4.0,5.0,5.0,5.0,4.0,4.0,,6.0,5.0,5.0,5.0,5.0,5.0,5.0,5.0,5.0,5.0,1.0,4.0,5.0,2.0,5.0,5.0,4.0,4.0,5.0,3.0,4.0,3.0,4.0,5.0,4.0,2.0,,5.0,5.0,4.0,5.0,5.0,2.0,,2.1,1.666667,3.666667,3.666667,4.333333,4.333333,4.666667,5.1
105341,1172,2020-03-31 14:46:14,EN,40,Female,"College degree, bachelor, master",Some College or equivalent,Student,United States,no,Nevada,Single,0.0,Yes,Life carries on with minor changes,0.0,0.0,Program A,,Yes,2.0,2.0,3.0,4.0,3.0,2.0,4.0,4.0,2.0,2.0,3.0,3.0,3.0,4.0,7.0,3.0,6.0,6.0,6.0,7.0,6.0,4.0,5.0,5.0,5.0,5.0,4.0,5.0,3.0,4.0,3.0,4.0,5.0,3.0,3.0,5.0,6.0,3.0,3.0,5.0,6.0,4.0,4.0,5.0,4.0,4.0,4.0,5.0,4.0,3.0,99.0,5.0,4.0,4.0,99.0,99.0,99.0,4.0,4.0,5.0,5.0,4.0,4.0,2.0,1.0,4.0,3.0,3.0,5.0,2.0,4.0,3.0,,6.0,3.0,3.0,4.0,5.0,4.0,4.0,5.0,5.0,6.0,3.0,5.0,5.0,4.0,4.0,2.0,4.0,1.0,5.0,3.0,4.0,4.0,4.0,5.0,2.0,4.0,,4.0,6.0,2.0,5.0,2.0,3.0,,2.2,3.0,2.666667,4.333333,5.0,4.0,4.0,4.5
105342,74507,2020-03-31 11:08:22,EN,52,Male,"Some College, short continuing education or equivalent",Some College or equivalent,Self-employed,United States,no,Michigan,Single,0.0,Yes,Isolated,0.0,0.0,,Program C,No,3.0,1.0,4.0,5.0,3.0,1.0,5.0,2.0,1.0,5.0,5.0,3.0,4.0,6.0,7.0,3.0,5.0,7.0,2.0,8.0,1.0,5.0,6.0,6.0,6.0,6.0,1.0,6.0,6.0,6.0,6.0,4.0,6.0,5.0,2.0,5.0,6.0,5.0,2.0,5.0,6.0,5.0,3.0,4.0,5.0,4.0,4.0,5.0,6.0,6.0,99.0,6.0,5.0,6.0,2.0,99.0,99.0,5.0,6.0,6.0,5.0,6.0,99.0,6.0,4.0,5.0,5.0,99.0,3.0,2.0,6.0,6.0,,5.0,5.0,5.0,5.0,5.0,5.0,5.0,5.0,5.0,5.0,3.0,2.0,5.0,2.0,5.0,4.0,1.0,2.0,2.0,4.0,3.0,4.0,3.0,3.0,3.0,4.0,,5.0,5.0,3.0,3.0,3.0,4.0,I need cash to pay my bills. No money coming in is my biggest stress.,2.4,4.0,3.0,5.333333,5.333333,4.333333,4.0,5.0
105373,997,2020-03-30 14:39:43,EN,49,Female,"Some College, short continuing education or equivalent",College degree,Full time employed,United States,no,New Jersey,Divorced/widowed,0.0,Yes,Life carries on with minor changes,0.0,0.0,,Program C,No,2.0,2.0,3.0,5.0,4.0,2.0,2.0,5.0,3.0,2.0,2.0,2.0,3.0,7.0,9.0,5.0,7.0,8.0,2.0,10.0,5.0,4.0,5.0,5.0,6.0,6.0,0.0,5.0,5.0,5.0,4.0,4.0,2.0,5.0,4.0,5.0,3.0,2.0,5.0,4.0,5.0,3.0,6.0,5.0,5.0,4.0,4.0,5.0,2.0,2.0,99.0,3.0,4.0,3.0,2.0,99.0,99.0,6.0,4.0,5.0,5.0,6.0,1.0,2.0,4.0,3.0,5.0,2.0,2.0,2.0,5.0,2.0,,6.0,5.0,4.0,5.0,6.0,5.0,6.0,6.0,5.0,6.0,4.0,3.0,4.0,4.0,4.0,3.0,4.0,4.0,5.0,4.0,4.0,4.0,4.0,4.0,1.0,4.0,,4.0,4.0,3.0,3.0,3.0,4.0,,2.2,2.333333,3.666667,2.333333,4.0,3.666667,4.0,5.4
105374,930,2020-03-30 14:38:29,LT,37,Female,"College degree, bachelor, master",College degree,Full time employed,United States,yes,Texas (Teksasas),Single,0.0,Yes,Life carries on with minor changes,0.0,0.0,,Program D,No,2.0,2.0,2.0,4.0,4.0,3.0,4.0,4.0,2.0,2.0,1.0,1.0,2.0,5.0,8.0,6.0,6.0,6.0,8.0,8.0,6.0,4.0,5.0,5.0,5.0,5.0,6.0,5.0,5.0,6.0,1.0,3.0,6.0,4.0,5.0,4.0,4.0,1.0,4.0,4.0,4.0,5.0,5.0,3.0,4.0,4.0,4.0,5.0,4.0,4.0,99.0,4.0,4.0,1.0,99.0,99.0,99.0,6.0,4.0,4.0,4.0,5.0,1.0,1.0,2.0,1.0,1.0,1.0,5.0,3.0,4.0,4.0,,4.0,4.0,1.0,5.0,4.0,4.0,5.0,5.0,4.0,4.0,4.0,1.0,1.0,1.0,1.0,1.0,1.0,1.0,1.0,1.0,1.0,4.0,1.0,1.0,1.0,4.0,"Dauguma pasirinkau ""Stipriai nesutinku"", nes teiginys yra ""padejo man jaustis patogiau"". Nepakeite, kaip a jauciuosi,visada juos dariau ar nedariau, ir karantinas to nepakeite. I esmes mano gyvenimas pasikeite tik tiek, kad nereikia vaiuoti i darba, bet dirbu i namu.",3.0,4.0,4.0,3.0,3.0,3.0,"iek tiek maesnis paslaugu/prekiu prieinamumas, teko ataukti kelione ir ioks toks nerimas del darbo ilaikymo/udarbio/iaip pokyciu",2.1,1.333333,4.0,2.666667,4.333333,3.0,4.0,4.0
105382,146,2020-03-31 14:24:41,EN,47,Female,PhD/Doctorate,Some College or equivalent,Full time employed,United States,no,GA,Married/cohabiting,0.0,Yes,Isolated,1.0,0.0,,,,,,,,,,,,,,,,,,,,,,,,,,,,,,,,,,,,,,,,,,,,,,,,,,,,,,,,,,,,,,,,,,,,,,,,,,,,,,,,,,,,,,,,,,,,,,,,,,,,,,,,,,,,,,,,,,,,,,
105395,767,2020-03-30 14:33:15,EN,29,Female,PhD/Doctorate,PhD/Doctorate,Full time employed,United States,no,texas,Divorced/widowed,0.0,No,Isolated,1.0,0.0,Program A,,No,4.0,4.0,4.0,3.0,3.0,3.0,3.0,3.0,4.0,3.0,4.0,3.0,4.0,5.0,7.0,7.0,5.0,5.0,8.0,0.0,6.0,2.0,3.0,3.0,4.0,4.0,4.0,4.0,4.0,3.0,1.0,4.0,4.0,6.0,6.0,2.0,5.0,2.0,5.0,3.0,6.0,3.0,1.0,5.0,5.0,3.0,5.0,5.0,1.0,3.0,99.0,1.0,3.0,5.0,99.0,4.0,99.0,4.0,5.0,2.0,2.0,4.0,4.0,3.0,1.0,4.0,4.0,4.0,4.0,1.0,4.0,5.0,,6.0,5.0,5.0,6.0,6.0,5.0,6.0,6.0,5.0,6.0,4.0,4.0,5.0,3.0,4.0,3.0,3.0,3.0,4.0,5.0,4.0,4.0,4.0,5.0,5.0,4.0,,5.0,5.0,5.0,4.0,4.0,4.0,,3.4,3.666667,5.666667,3.0,4.0,5.333333,3.333333,5.6
105430,8859,2020-03-30 16:45:23,EN,38,Female,PhD/Doctorate,College degree,Full time employed,United States,no,IL,Married/cohabiting,1.0,Yes,Life carries on with minor changes,1.0,1.0,,Program D,No,3.0,3.0,4.0,3.0,4.0,4.0,3.0,3.0,3.0,4.0,2.0,2.0,2.0,5.0,9.0,5.0,8.0,7.0,9.0,9.0,5.0,6.0,6.0,6.0,5.0,5.0,3.0,6.0,6.0,6.0,4.0,5.0,3.0,5.0,5.0,1.0,4.0,2.0,6.0,4.0,5.0,4.0,2.0,3.0,5.0,6.0,2.0,5.0,1.0,4.0,3.0,4.0,6.0,4.0,99.0,4.0,5.0,6.0,5.0,6.0,6.0,6.0,2.0,3.0,1.0,2.0,3.0,5.0,5.0,4.0,5.0,99.0,,5.0,6.0,6.0,6.0,6.0,6.0,6.0,6.0,6.0,5.0,4.0,6.0,6.0,6.0,6.0,5.0,1.0,1.0,6.0,3.0,3.0,5.0,3.0,5.0,4.0,5.0,,5.0,4.0,4.0,5.0,6.0,3.0,,3.2,2.0,5.333333,2.333333,4.333333,4.333333,5.333333,5.8
105451,630,2020-03-30 14:26:16,EN,30,Female,"College degree, bachelor, master",College degree,Full time employed,United States,no,Ohio,Married/cohabiting,1.0,Yes,Isolated,1.0,1.0,Program B,,No,3.0,3.0,2.0,4.0,3.0,2.0,3.0,2.0,2.0,4.0,3.0,4.0,4.0,3.0,7.0,1.0,2.0,1.0,,3.0,1.0,2.0,4.0,5.0,3.0,4.0,1.0,5.0,5.0,5.0,5.0,2.0,1.0,1.0,1.0,2.0,6.0,6.0,2.0,5.0,6.0,2.0,5.0,2.0,5.0,4.0,2.0,5.0,3.0,1.0,4.0,4.0,4.0,6.0,5.0,1.0,1.0,5.0,4.0,3.0,4.0,4.0,1.0,4.0,2.0,5.0,6.0,2.0,4.0,1.0,5.0,5.0,,6.0,5.0,6.0,6.0,6.0,5.0,6.0,6.0,5.0,6.0,2.0,3.0,5.0,2.0,5.0,5.0,1.0,6.0,3.0,4.0,1.0,3.0,2.0,4.0,5.0,2.0,,3.0,2.0,6.0,4.0,5.0,2.0,"I am sad about the state of the world. I don't think Trump is helping. Regardless of my personal feelings, my family keeping ourselves physically isolated is vital to the slowing of this virus. I am grateful that we live in a technological age where I am not actually cut off from people.",2.8,3.666667,2.333333,5.666667,4.333333,3.0,4.666667,5.7
105473,1017,2020-03-30 14:29:59,EN,42,Female,PhD/Doctorate,College degree,Student,United States,no,Michigan,Married/cohabiting,2.0,Yes,Isolated,2.0,2.0,Program A,,No,2.0,2.0,4.0,4.0,3.0,3.0,4.0,3.0,3.0,2.0,2.0,2.0,5.0,8.0,9.0,4.0,6.0,6.0,3.0,7.0,1.0,5.0,6.0,6.0,6.0,6.0,0.0,5.0,6.0,6.0,1.0,3.0,4.0,5.0,5.0,3.0,6.0,6.0,1.0,5.0,6.0,5.0,1.0,5.0,6.0,5.0,1.0,6.0,2.0,5.0,2.0,1.0,6.0,4.0,1.0,2.0,4.0,5.0,5.0,6.0,6.0,6.0,1.0,6.0,5.0,5.0,6.0,1.0,3.0,2.0,4.0,1.0,,6.0,4.0,6.0,6.0,6.0,6.0,6.0,6.0,4.0,6.0,2.0,6.0,6.0,1.0,6.0,3.0,1.0,2.0,6.0,5.0,5.0,2.0,2.0,4.0,1.0,4.0,"Interactions outside of my home are done online, but face to face in that capacity",4.0,5.0,6.0,4.0,5.0,2.0,,2.6,3.0,4.666667,6.0,5.333333,5.666667,5.666667,5.6
105545,3904,2020-03-30 15:12:16,EN,25,Male,"College degree, bachelor, master",College degree,Part time employed,United States,no,Missouri,Single,0.0,No,Life carries on with minor changes,3.0,0.0,Program A,,No,1.0,2.0,2.0,5.0,4.0,2.0,4.0,4.0,3.0,1.0,3.0,1.0,3.0,6.0,9.0,5.0,7.0,9.0,7.0,0.0,6.0,1.0,4.0,5.0,6.0,5.0,4.0,6.0,6.0,6.0,1.0,5.0,6.0,3.0,2.0,6.0,6.0,5.0,4.0,6.0,6.0,6.0,5.0,5.0,4.0,4.0,5.0,5.0,2.0,1.0,99.0,4.0,1.0,4.0,5.0,5.0,99.0,5.0,1.0,2.0,1.0,5.0,99.0,1.0,1.0,5.0,2.0,1.0,99.0,99.0,5.0,5.0,,5.0,5.0,4.0,5.0,6.0,5.0,6.0,5.0,4.0,6.0,4.0,5.0,4.0,2.0,4.0,5.0,6.0,6.0,4.0,4.0,5.0,3.0,5.0,4.0,5.0,3.0,,3.0,2.0,2.0,1.0,1.0,1.0,,1.8,2.333333,2.0,4.666667,6.0,3.666667,3.666667,5.1
105551,1379,2020-03-30 14:29:42,LT,47,Male,PhD/Doctorate,College degree,Full time employed,United States,yes,Minnesota,Married/cohabiting,1.0,No,Life carries on with minor changes,,,,Program C,No,3.0,3.0,2.0,4.0,5.0,5.0,5.0,5.0,3.0,2.0,3.0,2.0,5.0,5.0,7.0,,,,,,,6.0,6.0,6.0,6.0,6.0,1.0,6.0,6.0,6.0,1.0,1.0,6.0,6.0,1.0,6.0,4.0,1.0,6.0,5.0,6.0,6.0,2.0,1.0,5.0,3.0,1.0,6.0,1.0,1.0,1.0,6.0,6.0,1.0,1.0,2.0,99.0,6.0,1.0,4.0,6.0,6.0,1.0,1.0,1.0,1.0,1.0,1.0,1.0,1.0,6.0,1.0,,6.0,6.0,6.0,5.0,1.0,5.0,1.0,5.0,5.0,5.0,1.0,6.0,5.0,1.0,6.0,6.0,5.0,4.0,5.0,1.0,6.0,1.0,1.0,5.0,1.0,1.0,,1.0,6.0,6.0,6.0,5.0,1.0,"Akcijos pinga, tikiuosi i to udirbti kai atpigs iki deramo lygio.",2.3,3.333333,2.666667,2.0,5.666667,3.666667,5.0,4.5
105599,1118,2020-03-30 14:20:55,EN,22,Female,"College degree, bachelor, master",College degree,Full time employed,United States,no,Connecticut,Married/cohabiting,0.0,Yes,Isolated,1.0,0.0,,Program D,No,4.0,4.0,3.0,2.0,3.0,3.0,3.0,2.0,5.0,3.0,3.0,2.0,3.0,1.0,6.0,2.0,4.0,6.0,1.0,8.0,2.0,4.0,6.0,6.0,6.0,6.0,1.0,5.0,5.0,5.0,2.0,3.0,4.0,5.0,5.0,6.0,4.0,4.0,3.0,5.0,6.0,4.0,3.0,5.0,5.0,4.0,3.0,6.0,4.0,5.0,99.0,5.0,3.0,4.0,1.0,2.0,99.0,5.0,6.0,5.0,6.0,6.0,2.0,2.0,5.0,3.0,5.0,3.0,4.0,2.0,6.0,4.0,,6.0,5.0,3.0,6.0,5.0,5.0,5.0,6.0,4.0,5.0,1.0,5.0,5.0,2.0,5.0,3.0,4.0,,5.0,3.0,3.0,2.0,2.0,3.0,1.0,2.0,,5.0,5.0,4.0,5.0,5.0,3.0,,3.6,2.666667,3.666667,4.0,5.0,4.666667,4.666667,5.0
105632,381,2020-03-31 14:05:50,LT,29,Male,"College degree, bachelor, master",College degree,Student,United States,yes,New York,Single,0.0,Yes,Isolated,0.0,0.0,Program A,,No,3.0,3.0,3.0,4.0,5.0,3.0,5.0,5.0,2.0,1.0,5.0,2.0,5.0,,,,,,,,,,,,,,,,,,,,,,,,,,,,,,,,,,,,,,,,,,,,,,,,,,,,,,,,,,,,,,,,,,,,,,,,,,,,,,,,,,,,,,,,,,,,,,,2.0,4.0,,,,,,
105636,689,2020-03-30 14:10:20,EN,25,Female,"College degree, bachelor, master",PhD/Doctorate,Student,United States,no,Iowa,Single,0.0,Yes,Isolated,4.0,0.0,Program B,,No,2.0,2.0,4.0,4.0,3.0,2.0,3.0,4.0,1.0,3.0,1.0,4.0,5.0,2.0,4.0,3.0,6.0,6.0,8.0,9.0,3.0,4.0,5.0,4.0,4.0,4.0,3.0,5.0,4.0,4.0,1.0,1.0,2.0,6.0,6.0,4.0,1.0,1.0,6.0,5.0,6.0,6.0,2.0,4.0,5.0,4.0,3.0,4.0,1.0,1.0,1.0,1.0,1.0,1.0,1.0,1.0,1.0,1.0,1.0,1.0,1.0,1.0,1.0,1.0,1.0,1.0,1.0,1.0,1.0,1.0,1.0,1.0,,5.0,6.0,5.0,6.0,6.0,5.0,6.0,5.0,5.0,6.0,3.0,5.0,4.0,1.0,4.0,4.0,5.0,5.0,5.0,5.0,3.0,4.0,4.0,6.0,1.0,3.0,,2.0,2.0,2.0,2.0,2.0,2.0,,2.4,3.333333,5.0,1.0,5.666667,4.666667,4.0,5.5
105669,523,2020-03-30 14:03:38,ZH-T,25,Female,PhD/Doctorate,Some College or equivalent,Student,United States,yes,New York,Single,0.0,No,Life carries on with minor changes,0.0,0.0,,Program D,Yes,4.0,3.0,3.0,3.0,2.0,2.0,3.0,3.0,1.0,3.0,2.0,1.0,3.0,7.0,7.0,6.0,6.0,6.0,5.0,5.0,5.0,4.0,4.0,4.0,4.0,4.0,4.0,6.0,6.0,6.0,2.0,5.0,4.0,4.0,4.0,4.0,4.0,4.0,2.0,4.0,5.0,5.0,2.0,3.0,3.0,3.0,4.0,4.0,2.0,5.0,1.0,2.0,3.0,2.0,1.0,1.0,1.0,1.0,1.0,4.0,2.0,2.0,1.0,1.0,1.0,2.0,2.0,3.0,5.0,1.0,4.0,1.0,,5.0,5.0,3.0,5.0,5.0,4.0,5.0,5.0,3.0,5.0,2.0,4.0,4.0,4.0,5.0,2.0,2.0,2.0,6.0,2.0,2.0,2.0,4.0,2.0,2.0,2.0,,5.0,3.0,5.0,3.0,4.0,2.0,,2.9,2.0,3.666667,4.333333,4.666667,3.666667,3.333333,4.5
105676,2319,2020-03-30 14:33:04,EN,57,Female,"College degree, bachelor, master",Some College or equivalent,Self-employed,United States,no,Pennsylvania,Married/cohabiting,2.0,Yes,Isolated,1.0,0.0,Program A,,No,3.0,3.0,5.0,3.0,3.0,4.0,3.0,3.0,4.0,3.0,4.0,2.0,5.0,8.0,9.0,2.0,10.0,8.0,7.0,7.0,,4.0,5.0,5.0,6.0,6.0,0.0,6.0,4.0,4.0,1.0,5.0,4.0,4.0,5.0,4.0,5.0,6.0,1.0,2.0,5.0,1.0,4.0,4.0,5.0,5.0,4.0,5.0,99.0,4.0,6.0,99.0,5.0,5.0,99.0,6.0,99.0,6.0,3.0,6.0,6.0,5.0,99.0,99.0,1.0,5.0,4.0,2.0,1.0,1.0,6.0,99.0,,5.0,4.0,4.0,5.0,5.0,5.0,5.0,5.0,4.0,5.0,4.0,4.0,4.0,1.0,4.0,5.0,4.0,4.0,5.0,,4.0,4.0,2.0,4.0,2.0,3.0,"I do not trust the information coming from our president, nor do I trust his judgment. I am relieved that Dr. Fauci is advising him, but also concerned that Dr. Fauci will stop being an integral part of the US Task Force because so much of his time is wasted by having to correct the erroneous or inflammatory information shared in public by our totally unqualified president. I trust the information I hear from the governor of my state, Pennsylvania, and the governors of New Jersey and especially Gov. Cuomo of New York.",2.0,3.0,2.0,3.0,4.0,2.0,"Our governor closed all of our schools in Pennsylvania March 16 for two weeks. Last week he extended the closure to April 6. The governor today announced that schools are closed until further notice.  Both of my girls are seniors in high school and are supposed to graduate in June. I don't think they will have a graduation ceremony.  Our school district decided to offer ""enrichment"" activities via distance learning starting today. It was obvious that the teachers were not ready to do so. One of my daughters is taking three advanced placement classes, but I am concerned that she will not learn enough about the three subjects to be able to score well on the Advanced Placement exams, taking away from her the opportunity to earn 9 college credits before she even starts college. Some people think that if school remains closed, the teachers will have to actually teach subject matter via distance learning starting April 13. IF that happens, my daughter will have lost a month of instructional time. I also worry about my family in Estonia, and there is certainly nothing I can do from here to help them. It is obvious that I am stressed because I have had shingles break out twice since schools closed, the first time right after the schools closed, and over this weekend again. I get shingles when I am run down, and I am concerned that I might be more susceptible to the coronavirus when run down.",3.4,3.666667,4.0,5.666667,2.666667,4.0,4.333333,4.7
105679,1238,2020-03-30 14:14:54,EN,58,Female,"College degree, bachelor, master",College degree,Full time employed,United States,no,New Mexico,Single,0.0,Yes,Life carries on with minor changes,0.0,0.0,,Program D,No,3.0,2.0,2.0,4.0,4.0,2.0,4.0,4.0,3.0,2.0,2.0,2.0,2.0,6.0,9.0,2.0,3.0,8.0,7.0,7.0,0.0,6.0,6.0,6.0,6.0,6.0,0.0,5.0,5.0,5.0,1.0,2.0,2.0,3.0,2.0,5.0,3.0,5.0,3.0,5.0,5.0,4.0,5.0,4.0,5.0,4.0,3.0,5.0,3.0,99.0,99.0,4.0,1.0,2.0,1.0,99.0,99.0,5.0,4.0,3.0,4.0,5.0,99.0,4.0,2.0,3.0,5.0,3.0,2.0,2.0,4.0,4.0,,6.0,6.0,,6.0,6.0,5.0,6.0,6.0,5.0,6.0,1.0,4.0,4.0,3.0,4.0,3.0,1.0,1.0,5.0,5.0,3.0,5.0,3.0,5.0,3.0,3.0,,2.0,5.0,3.0,3.0,2.0,5.0,,2.2,2.0,2.333333,4.0,4.666667,3.666667,4.333333,5.777778
105682,115,2020-03-31 13:55:13,LT,41,Female,"College degree, bachelor, master",College degree,Part time employed,United States,yes,,Married/cohabiting,5.0,Yes,Life carries on with minor changes,1.0,,,,,,,,,,,,,,,,,,,,,,,,,,,,,,,,,,,,,,,,,,,,,,,,,,,,,,,,,,,,,,,,,,,,,,,,,,,,,,,,,,,,,,,,,,,,,,,,,,,,,,,,,,,,,,,,,,,,,,,
105712,1973,2020-03-30 14:23:54,EN,43,Female,"College degree, bachelor, master",College degree,Full time employed,United States,no,New York,Married/cohabiting,0.0,Yes,Isolated,1.0,0.0,,Program D,No,5.0,5.0,5.0,2.0,3.0,5.0,2.0,2.0,4.0,4.0,1.0,1.0,3.0,3.0,7.0,0.0,0.0,0.0,0.0,8.0,0.0,5.0,6.0,5.0,4.0,5.0,0.0,6.0,6.0,6.0,3.0,1.0,1.0,6.0,6.0,5.0,1.0,1.0,6.0,5.0,6.0,4.0,4.0,6.0,5.0,6.0,4.0,6.0,5.0,99.0,99.0,6.0,6.0,4.0,1.0,4.0,99.0,1.0,5.0,6.0,6.0,6.0,99.0,1.0,1.0,4.0,1.0,1.0,5.0,2.0,4.0,99.0,Getting sick and not being treated for something other than coronavirus because of system overwhelm and the need to avoid exposure,4.0,6.0,5.0,6.0,6.0,6.0,5.0,6.0,6.0,6.0,1.0,6.0,6.0,1.0,4.0,6.0,4.0,4.0,6.0,5.0,5.0,5.0,3.0,1.0,2.0,4.0,,1.0,4.0,6.0,6.0,6.0,5.0,I'm really terrified that I could have cancer that's growing unchecked because it's not safe to seek non-Covid-19 medical care.,4.3,1.666667,4.666667,1.0,5.0,4.666667,5.0,5.6
105739,2097,2020-03-30 14:23:37,EN,75,Female,"College degree, bachelor, master",Some College or equivalent,Retired,United States,no,Arizona,Married/cohabiting,0.0,Yes,Life carries on with minor changes,1.0,0.0,,,,1.0,2.0,3.0,5.0,4.0,1.0,5.0,5.0,1.0,1.0,3.0,2.0,2.0,7.0,8.0,8.0,9.0,9.0,8.0,8.0,5.0,6.0,6.0,6.0,6.0,6.0,5.0,5.0,5.0,5.0,4.0,3.0,3.0,5.0,4.0,5.0,5.0,5.0,4.0,3.0,5.0,4.0,4.0,5.0,5.0,5.0,4.0,5.0,99.0,99.0,99.0,99.0,4.0,5.0,99.0,4.0,99.0,5.0,2.0,4.0,4.0,5.0,99.0,1.0,4.0,2.0,2.0,4.0,4.0,2.0,4.0,99.0,,5.0,6.0,5.0,4.0,5.0,5.0,5.0,4.0,5.0,5.0,4.0,4.0,6.0,5.0,4.0,5.0,2.0,1.0,4.0,5.0,3.0,4.0,5.0,6.0,2.0,4.0,,4.0,4.0,4.0,2.0,4.0,5.0,,1.4,2.333333,3.666667,4.333333,4.0,4.333333,4.333333,4.9
105749,653,2020-03-31 13:58:57,ZH-T,29,Female,PhD/Doctorate,Some College or equivalent,Student,United States,no,Massachusetts,Married/cohabiting,1.0,No,Life carries on with minor changes,1.0,1.0,,Program C,Not sure,4.0,3.0,4.0,2.0,4.0,3.0,3.0,2.0,3.0,4.0,2.0,3.0,2.0,7.0,8.0,0.0,2.0,1.0,1.0,0.0,0.0,4.0,4.0,4.0,5.0,6.0,0.0,3.0,3.0,4.0,2.0,2.0,5.0,4.0,2.0,4.0,4.0,4.0,3.0,4.0,4.0,4.0,2.0,4.0,4.0,4.0,4.0,4.0,6.0,5.0,5.0,5.0,5.0,5.0,1.0,5.0,5.0,5.0,5.0,5.0,5.0,5.0,5.0,6.0,5.0,5.0,5.0,5.0,5.0,5.0,5.0,5.0,,4.0,4.0,4.0,4.0,4.0,4.0,4.0,4.0,4.0,5.0,2.0,4.0,4.0,4.0,4.0,5.0,2.0,2.0,4.0,4.0,4.0,4.0,4.0,4.0,2.0,4.0,,4.0,5.0,4.0,2.0,4.0,2.0,,3.4,2.333333,3.0,4.0,4.0,4.333333,3.666667,4.1
105791,746,2020-03-31 13:57:56,EN,31,Female,"College degree, bachelor, master",College degree,Full time employed,United States,no,New York,Single,0.0,Yes,Life carries on with minor changes,,,Program A,,No,3.0,3.0,3.0,5.0,3.0,1.0,3.0,3.0,3.0,1.0,4.0,2.0,5.0,4.0,9.0,4.0,5.0,4.0,4.0,4.0,3.0,5.0,5.0,5.0,5.0,6.0,2.0,4.0,6.0,6.0,2.0,3.0,4.0,5.0,3.0,4.0,3.0,6.0,2.0,5.0,6.0,4.0,1.0,5.0,6.0,5.0,,5.0,3.0,3.0,99.0,1.0,4.0,6.0,6.0,6.0,99.0,4.0,2.0,3.0,2.0,5.0,3.0,4.0,3.0,5.0,6.0,1.0,3.0,2.0,5.0,6.0,,6.0,6.0,6.0,6.0,6.0,5.0,6.0,6.0,6.0,6.0,4.0,6.0,6.0,5.0,6.0,6.0,4.0,4.0,6.0,5.0,5.0,5.0,5.0,5.0,6.0,5.0,,3.0,5.0,6.0,5.0,6.0,3.0,,2.4,3.666667,3.666667,4.666667,5.0,5.666667,5.0,5.9
105808,903,2020-03-30 13:59:35,SME,31,Female,"College degree, bachelor, master",Up to 6 years of school,Full time employed,United States,no,California,Single,0.0,Yes,Isolated,2.0,1.0,,Program C,No,,,,,,,,,,,,,,,,,,,,10.0,,,,,,,0.0,,,,,,,,,,,,,,,,,,,,,,,,,,,,,,,,,,,,,,,,,,,,,,,,,,,,,,,,,,,,,,,,,,,,,,,,,,,,,,,,,,,,,,,,
105809,594,2020-03-30 13:54:21,ZH-T,39,Female,PhD/Doctorate,College degree,Not employed,United States,yes,San francisco,Married/cohabiting,1.0,No,Life carries on with minor changes,1.0,1.0,,Program D,,3.0,2.0,1.0,4.0,2.0,3.0,3.0,2.0,4.0,1.0,1.0,1.0,2.0,6.0,9.0,4.0,5.0,3.0,8.0,1.0,10.0,4.0,4.0,3.0,6.0,6.0,7.0,6.0,6.0,5.0,1.0,5.0,4.0,5.0,5.0,3.0,1.0,4.0,6.0,5.0,5.0,5.0,5.0,6.0,5.0,3.0,5.0,4.0,99.0,,99.0,99.0,4.0,1.0,1.0,2.0,5.0,6.0,5.0,2.0,4.0,5.0,2.0,6.0,2.0,1.0,2.0,2.0,6.0,4.0,5.0,5.0,,5.0,5.0,5.0,5.0,5.0,3.0,5.0,5.0,4.0,6.0,5.0,3.0,5.0,2.0,5.0,5.0,2.0,1.0,5.0,5.0,3.0,4.0,5.0,5.0,1.0,5.0,,5.0,5.0,5.0,2.0,5.0,3.0,,2.7,1.333333,4.666667,2.0,5.0,4.333333,3.0,4.8
105876,307,2020-03-31 13:44:13,LT,40,Female,"College degree, bachelor, master",College degree,Self-employed,United States,yes,New york,Married/cohabiting,1.0,No,Isolated,0.0,1.0,,,,,,,,,,,,,,,,,,,,,,,,,,,,,,,,,,,,,,,,,,,,,,,,,,,,,,,,,,,,,,,,,,,,,,,,,,,,,,,,,,,,,,,,,,,,,,,,,,,,,,,,,,,,,,,,,,,,,,
105880,9432,2020-03-31 16:15:49,ZH-T,26,Female,PhD/Doctorate,College degree,Student,United States,yes,mn,Single,0.0,No,Life carries on with minor changes,0.0,0.0,Program A,,Yes,3.0,2.0,4.0,2.0,3.0,3.0,3.0,3.0,2.0,4.0,2.0,2.0,3.0,7.0,9.0,7.0,7.0,6.0,6.0,0.0,7.0,4.0,4.0,4.0,6.0,5.0,6.0,5.0,5.0,5.0,2.0,5.0,5.0,4.0,5.0,4.0,4.0,3.0,4.0,3.0,4.0,3.0,2.0,5.0,4.0,3.0,4.0,3.0,,,,,,,,,,,,,,,,,,,,,,,,,,,,,,,,,,,,,,,,,,,,,,,,,,,,,,,,,,,,3.1,2.333333,4.0,3.333333,3.333333,4.666667,3.0,
105906,137,2020-03-31 13:38:42,EN,34,Female,"College degree, bachelor, master",Some College or equivalent,Full time employed,United States,no,Michigan,Married/cohabiting,0.0,Yes,Life carries on with minor changes,1.0,0.0,,Program D,,,,,,,,,,,,,,,,,,,,,,,,,,,,,,,,,,,,,,,,,,,,,,,,,,,,,,,,,,,,,,,,,,,,,,,,,,,,,,,,,,,,,,,,,,,,,,,,,,,,,,,,,,,,,,,,,,,,
105936,2667,2020-03-30 14:18:24,EN,61,Female,"College degree, bachelor, master",Up to 12 years of school,Retired,United States,no,Pennsylvania,Divorced/widowed,0.0,Yes,Life carries on with minor changes,1.0,0.0,,Program D,No,2.0,3.0,3.0,3.0,3.0,3.0,4.0,2.0,3.0,3.0,2.0,3.0,3.0,7.0,8.0,5.0,7.0,7.0,7.0,7.0,6.0,6.0,6.0,6.0,6.0,6.0,5.0,5.0,5.0,5.0,4.0,4.0,1.0,6.0,5.0,5.0,4.0,3.0,5.0,4.0,5.0,2.0,3.0,5.0,5.0,5.0,4.0,5.0,2.0,99.0,99.0,99.0,4.0,6.0,6.0,2.0,99.0,6.0,2.0,4.0,4.0,4.0,99.0,4.0,4.0,4.0,5.0,6.0,4.0,2.0,6.0,99.0,Worried about investments that are not necessarily needed at this point but maybe in a few months.,5.0,6.0,6.0,6.0,6.0,5.0,6.0,5.0,5.0,6.0,5.0,5.0,5.0,,,6.0,1.0,1.0,5.0,4.0,4.0,5.0,3.0,5.0,6.0,5.0,,5.0,3.0,3.0,3.0,5.0,3.0,The biggest concern I have are my investments. I have saved money over my lifetime and am worried there will be little to depend on by the time this is over.,2.9,2.666667,4.333333,3.0,3.666667,4.666667,4.333333,5.6
105968,425,2020-03-30 13:38:57,EN,27,Female,PhD/Doctorate,PhD/Doctorate,Full time employed,United States,no,Ohio,Single,0.0,Yes,Isolated,0.0,0.0,,Program D,No,4.0,5.0,,2.0,1.0,4.0,3.0,1.0,3.0,5.0,3.0,2.0,3.0,3.0,5.0,3.0,3.0,6.0,4.0,7.0,,5.0,6.0,5.0,5.0,5.0,0.0,5.0,5.0,5.0,2.0,2.0,1.0,4.0,2.0,5.0,3.0,3.0,5.0,5.0,6.0,6.0,4.0,4.0,4.0,3.0,4.0,4.0,3.0,4.0,99.0,6.0,3.0,2.0,1.0,99.0,99.0,6.0,4.0,5.0,5.0,99.0,3.0,2.0,4.0,3.0,2.0,2.0,2.0,2.0,5.0,4.0,,3.0,5.0,5.0,5.0,6.0,5.0,5.0,5.0,5.0,3.0,4.0,1.0,5.0,1.0,1.0,4.0,2.0,1.0,6.0,1.0,2.0,4.0,1.0,4.0,1.0,4.0,,6.0,6.0,6.0,6.0,6.0,2.0,,4.222222,2.666667,2.666667,2.666667,5.666667,3.666667,3.333333,4.7
106063,2603,2020-03-30 14:07:49,EN,62,Female,"Some College, short continuing education or equivalent",Up to 12 years of school,Retired,United States,no,Michigan,Married/cohabiting,0.0,Yes,Isolated,1.0,0.0,,Program D,No,5.0,4.0,4.0,3.0,4.0,4.0,3.0,3.0,3.0,5.0,2.0,2.0,2.0,8.0,10.0,6.0,9.0,9.0,8.0,10.0,6.0,5.0,6.0,4.0,5.0,5.0,3.0,5.0,5.0,4.0,4.0,6.0,3.0,4.0,3.0,5.0,6.0,5.0,4.0,4.0,5.0,3.0,3.0,4.0,5.0,3.0,6.0,4.0,3.0,99.0,99.0,2.0,2.0,5.0,2.0,2.0,99.0,4.0,3.0,5.0,6.0,99.0,99.0,5.0,2.0,2.0,2.0,4.0,5.0,5.0,4.0,99.0,,6.0,6.0,6.0,6.0,6.0,5.0,6.0,6.0,5.0,6.0,3.0,4.0,5.0,3.0,5.0,5.0,,,6.0,4.0,4.0,5.0,4.0,5.0,6.0,4.0,,2.0,4.0,2.0,3.0,3.0,2.0,,3.6,2.0,3.0,4.666667,4.0,4.333333,2.666667,5.8
106089,156,2020-03-31 13:25:23,EN,41,Female,"College degree, bachelor, master",Up to 12 years of school,Retired,United States,no,WA,Married/cohabiting,2.0,Yes,Isolated,1.0,2.0,Program B,,,,,,,,,,,,,,,,,,,,,,,,,,,,,,,,,,,,,,,,,,,,,,,,,,,,,,,,,,,,,,,,,,,,,,,,,,,,,,,,,,,,,,,,,,,,,,,,,,,,,,,,,,,,,,,,,,,,,
106150,632,2020-03-30 13:28:03,EN,32,Female,PhD/Doctorate,Some College or equivalent,Full time employed,United States,no,Rhode Island,Married/cohabiting,0.0,No,Isolated,1.0,0.0,Program A,,No,3.0,3.0,4.0,4.0,3.0,2.0,4.0,4.0,3.0,3.0,2.0,2.0,2.0,4.0,7.0,4.0,7.0,7.0,7.0,7.0,2.0,5.0,5.0,5.0,6.0,6.0,0.0,5.0,4.0,5.0,1.0,4.0,2.0,4.0,4.0,4.0,6.0,4.0,2.0,4.0,5.0,3.0,2.0,5.0,5.0,3.0,1.0,5.0,4.0,5.0,99.0,6.0,4.0,4.0,99.0,1.0,99.0,6.0,6.0,6.0,6.0,5.0,6.0,1.0,2.0,4.0,2.0,2.0,3.0,2.0,6.0,1.0,,6.0,5.0,6.0,6.0,6.0,5.0,6.0,6.0,5.0,5.0,3.0,1.0,5.0,1.0,6.0,4.0,1.0,1.0,4.0,6.0,1.0,5.0,6.0,6.0,1.0,5.0,,5.0,5.0,5.0,4.0,2.0,1.0,,2.7,2.0,3.666667,5.0,4.0,5.0,4.666667,5.6
106153,1466,2020-03-30 13:41:42,EN,51,Male,"College degree, bachelor, master",College degree,Full time employed,United States,,Pennsylvania,Married/cohabiting,2.0,No,Life carries on with minor changes,1.0,2.0,,Program C,No,3.0,2.0,4.0,4.0,4.0,2.0,5.0,4.0,2.0,2.0,1.0,3.0,3.0,5.0,8.0,8.0,8.0,5.0,10.0,5.0,9.0,4.0,5.0,5.0,6.0,4.0,5.0,6.0,6.0,6.0,1.0,4.0,6.0,5.0,4.0,5.0,3.0,3.0,5.0,5.0,6.0,6.0,2.0,5.0,6.0,3.0,5.0,5.0,1.0,4.0,5.0,1.0,2.0,3.0,99.0,5.0,4.0,6.0,2.0,4.0,5.0,5.0,1.0,3.0,4.0,4.0,3.0,3.0,5.0,1.0,4.0,1.0,"The medias opposition to those in charge, while in the midst of this pandemic, distressed me. They are making things worse.",5.0,5.0,4.0,5.0,5.0,5.0,6.0,6.0,5.0,5.0,5.0,4.0,4.0,4.0,2.0,3.0,6.0,6.0,5.0,3.0,4.0,5.0,4.0,5.0,1.0,5.0,,5.0,4.0,5.0,2.0,3.0,3.0,,2.2,2.333333,3.666667,2.666667,5.666667,5.333333,3.333333,5.1
106163,1888,2020-03-30 13:48:17,EN,77,Female,"Some College, short continuing education or equivalent",Up to 12 years of school,Retired,United States,no,Plymouth,Married/cohabiting,0.0,Yes,Isolated,2.0,0.0,,Program C,No,1.0,1.0,1.0,1.0,5.0,1.0,5.0,5.0,1.0,1.0,1.0,1.0,4.0,9.0,10.0,9.0,,10.0,9.0,9.0,10.0,5.0,6.0,6.0,6.0,6.0,5.0,5.0,5.0,5.0,2.0,5.0,1.0,6.0,2.0,5.0,5.0,5.0,2.0,5.0,4.0,2.0,1.0,5.0,6.0,5.0,2.0,5.0,2.0,99.0,99.0,99.0,4.0,6.0,6.0,6.0,99.0,6.0,99.0,99.0,6.0,5.0,99.0,99.0,1.0,99.0,5.0,2.0,1.0,1.0,6.0,6.0,,6.0,6.0,6.0,6.0,6.0,6.0,6.0,6.0,6.0,5.0,5.0,5.0,6.0,5.0,6.0,5.0,1.0,1.0,5.0,6.0,5.0,5.0,5.0,5.0,6.0,5.0,,5.0,5.0,5.0,5.0,5.0,5.0,I was widowed.  Remarried Dec. 1st.  We have been very busy and had many trips planned that we are missing.  We were wintering in N.H.  Where we fell saver than we would if in SC.  It has given us wonderful time together.  We feel very blessed to have each other especially during this time.,1.4,2.0,3.333333,5.0,3.666667,5.666667,5.0,5.9
106185,666,2020-03-30 13:26:43,ZH-T,35,Male,PhD/Doctorate,Up to 12 years of school,Full time employed,United States,yes,"Richmond, CA",Single,0.0,Yes,Isolated,0.0,0.0,Program A,,Not sure,2.0,2.0,2.0,4.0,4.0,3.0,3.0,3.0,2.0,2.0,3.0,2.0,2.0,7.0,5.0,4.0,7.0,3.0,5.0,0.0,4.0,5.0,6.0,6.0,6.0,6.0,1.0,5.0,6.0,6.0,1.0,4.0,6.0,4.0,4.0,4.0,3.0,4.0,4.0,4.0,4.0,5.0,2.0,4.0,4.0,5.0,1.0,5.0,6.0,6.0,99.0,5.0,5.0,4.0,2.0,99.0,99.0,6.0,6.0,6.0,6.0,5.0,6.0,3.0,5.0,4.0,3.0,6.0,5.0,6.0,4.0,6.0,,4.0,4.0,4.0,4.0,4.0,4.0,4.0,4.0,4.0,4.0,4.0,4.0,4.0,3.0,5.0,3.0,2.0,1.0,5.0,4.0,4.0,4.0,4.0,4.0,3.0,4.0,,3.0,5.0,3.0,5.0,5.0,4.0,,2.3,2.333333,3.666667,3.333333,4.333333,4.333333,5.333333,4.0
106243,1282,2020-03-30 13:34:13,EN,61,Male,PhD/Doctorate,Up to 12 years of school,Retired,United States,no,VA,Married/cohabiting,1.0,Yes,Isolated,2.0,0.0,Program B,,No,2.0,2.0,3.0,4.0,4.0,1.0,3.0,4.0,3.0,1.0,1.0,3.0,2.0,3.0,7.0,0.0,9.0,8.0,8.0,7.0,0.0,5.0,6.0,5.0,6.0,5.0,0.0,6.0,5.0,5.0,1.0,4.0,5.0,1.0,1.0,4.0,2.0,2.0,4.0,6.0,5.0,6.0,5.0,3.0,4.0,4.0,3.0,6.0,1.0,99.0,2.0,99.0,4.0,4.0,1.0,2.0,99.0,6.0,1.0,5.0,5.0,4.0,99.0,2.0,1.0,1.0,2.0,2.0,2.0,3.0,5.0,1.0,,5.0,5.0,4.0,6.0,5.0,5.0,4.0,6.0,5.0,5.0,2.0,6.0,4.0,4.0,4.0,5.0,1.0,1.0,4.0,2.0,4.0,4.0,1.0,6.0,1.0,2.0,,3.0,6.0,4.0,4.0,2.0,3.0,Increased contempt for that idiot in the White House and all of the morons he installed to run the government departments and agencies.,2.1,2.0,1.666667,2.333333,5.666667,3.0,4.666667,5.0
106276,2020,2020-03-30 13:44:23,ZH-T,48,Male,"College degree, bachelor, master",Up to 12 years of school,Full time employed,United States,yes,Indiana,Married/cohabiting,2.0,Yes,Life carries on with minor changes,0.0,0.0,,Program C,,3.0,2.0,3.0,3.0,2.0,2.0,3.0,1.0,3.0,3.0,1.0,1.0,1.0,5.0,7.0,5.0,6.0,7.0,6.0,1.0,5.0,6.0,6.0,5.0,6.0,5.0,0.0,3.0,6.0,6.0,2.0,4.0,3.0,5.0,3.0,5.0,3.0,3.0,5.0,4.0,3.0,4.0,4.0,4.0,5.0,4.0,5.0,4.0,4.0,2.0,6.0,,5.0,2.0,,5.0,6.0,5.0,5.0,6.0,6.0,4.0,2.0,2.0,99.0,1.0,2.0,2.0,5.0,5.0,4.0,1.0,,4.0,3.0,4.0,6.0,6.0,4.0,6.0,6.0,4.0,6.0,5.0,5.0,5.0,3.0,5.0,5.0,5.0,5.0,5.0,4.0,4.0,4.0,5.0,5.0,4.0,5.0,,4.0,4.0,5.0,4.0,4.0,4.0,,3.1,1.0,3.333333,2.666667,3.666667,4.0,3.333333,4.9
106317,1235,2020-03-30 13:27:51,EN,47,Female,"College degree, bachelor, master",College degree,Full time employed,United States,no,Arizona,Married/cohabiting,2.0,Yes,Isolated,1.0,1.0,Program B,,No,3.0,3.0,4.0,3.0,3.0,3.0,3.0,3.0,3.0,3.0,3.0,3.0,4.0,7.0,8.0,4.0,5.0,8.0,7.0,7.0,1.0,5.0,6.0,6.0,6.0,6.0,0.0,5.0,1.0,1.0,4.0,3.0,4.0,2.0,1.0,6.0,4.0,4.0,3.0,6.0,6.0,6.0,4.0,5.0,6.0,5.0,3.0,6.0,4.0,5.0,6.0,3.0,4.0,3.0,2.0,6.0,5.0,4.0,2.0,5.0,5.0,5.0,5.0,6.0,2.0,5.0,6.0,3.0,4.0,2.0,2.0,5.0,I worry fear and isolationism will be a lasting effect of covid 19. I hope we are imaginative and resourced to come out of this a more beautiful and sustainable human network.,4.0,5.0,4.0,3.0,5.0,5.0,5.0,5.0,5.0,4.0,1.0,4.0,5.0,1.0,4.0,4.0,1.0,2.0,4.0,5.0,4.0,1.0,4.0,4.0,4.0,3.0,"Close observation of nature, clouds, birds trees in the wind, the movement of light is a great comfort",4.0,6.0,6.0,2.0,6.0,4.0,,3.1,3.333333,1.333333,4.0,6.0,4.666667,5.0,4.5
106368,727,2020-03-30 13:13:30,EN,51,Female,"College degree, bachelor, master",Some College or equivalent,Full time employed,United States,no,Virginia,Married/cohabiting,1.0,No,Isolated,1.0,0.0,,Program C,No,2.0,4.0,3.0,3.0,2.0,2.0,3.0,3.0,3.0,2.0,2.0,2.0,3.0,4.0,6.0,5.0,6.0,7.0,7.0,7.0,5.0,3.0,4.0,4.0,5.0,5.0,4.0,5.0,4.0,4.0,2.0,2.0,2.0,5.0,3.0,4.0,2.0,3.0,4.0,4.0,4.0,4.0,4.0,4.0,4.0,5.0,2.0,5.0,6.0,3.0,99.0,4.0,3.0,4.0,3.0,4.0,99.0,6.0,3.0,4.0,4.0,4.0,2.0,2.0,3.0,4.0,4.0,3.0,4.0,3.0,6.0,3.0,,4.0,4.0,3.0,4.0,4.0,4.0,4.0,4.0,5.0,4.0,5.0,4.0,4.0,4.0,4.0,4.0,2.0,2.0,4.0,4.0,4.0,3.0,4.0,4.0,3.0,4.0,,4.0,3.0,2.0,4.0,5.0,3.0,,2.9,2.333333,3.666667,2.666667,4.0,3.666667,5.0,4.0
106376,344,2020-03-31 13:06:42,EN,63,Female,"College degree, bachelor, master",College degree,Retired,United States,no,Michigan,Married/cohabiting,1.0,Yes,Life carries on with minor changes,1.0,1.0,,Program C,No,1.0,5.0,2.0,5.0,5.0,1.0,4.0,5.0,1.0,2.0,1.0,2.0,1.0,,,,,,,,,,,,,,,,,,,,,,,,,,,,,,,,,,,,,,,,,,,,,,,,,,,,,,,,,,,,,,,,,,,,,,,,,,,,,,,,,,,,,,,,,,,,,,,1.7,1.333333,,,,,,
106384,442,2020-03-31 13:07:57,EN,22,Female,"College degree, bachelor, master",College degree,Full time employed,United States,no,New York,Single,0.0,Yes,Isolated,2.0,0.0,Program B,,Yes,4.0,3.0,5.0,3.0,3.0,3.0,2.0,2.0,4.0,3.0,3.0,3.0,5.0,7.0,8.0,5.0,7.0,7.0,8.0,9.0,4.0,6.0,5.0,6.0,6.0,5.0,1.0,5.0,6.0,5.0,2.0,3.0,2.0,5.0,3.0,4.0,5.0,4.0,3.0,5.0,5.0,4.0,3.0,4.0,5.0,4.0,4.0,5.0,5.0,5.0,99.0,6.0,5.0,6.0,4.0,6.0,99.0,5.0,99.0,6.0,5.0,6.0,5.0,3.0,99.0,4.0,4.0,4.0,5.0,2.0,6.0,5.0,,,,,,,,,,,,,,,,,,,,,,,,,,,,,,,,,,,,3.6,3.666667,3.666667,4.333333,4.666667,4.333333,4.0,
106391,1547,2020-03-31 13:25:44,EN,21,Female,"Some College, short continuing education or equivalent",PhD/Doctorate,Student,United States,no,Iowa,Single,0.0,Yes,Isolated,5.0,0.0,,Program D,Yes,3.0,5.0,4.0,3.0,2.0,3.0,3.0,3.0,3.0,3.0,4.0,4.0,5.0,6.0,8.0,5.0,2.0,4.0,6.0,9.0,2.0,3.0,6.0,4.0,6.0,6.0,1.0,6.0,5.0,5.0,3.0,3.0,3.0,3.0,3.0,4.0,6.0,5.0,3.0,4.0,6.0,5.0,2.0,4.0,5.0,3.0,4.0,5.0,5.0,5.0,99.0,6.0,4.0,5.0,2.0,5.0,99.0,5.0,6.0,5.0,6.0,6.0,5.0,6.0,4.0,6.0,5.0,5.0,3.0,5.0,6.0,2.0,,6.0,6.0,4.0,5.0,6.0,5.0,5.0,6.0,5.0,6.0,5.0,5.0,5.0,2.0,3.0,5.0,5.0,5.0,5.0,5.0,3.0,5.0,2.0,5.0,3.0,5.0,,5.0,2.0,5.0,2.0,5.0,1.0,,3.4,4.333333,3.0,5.0,5.0,4.666667,3.666667,5.4
106415,1770,2020-03-30 13:26:52,EN,20,Male,"Some College, short continuing education or equivalent",Up to 12 years of school,Not employed,United States,no,Texas,Single,0.0,Yes,Isolated,2.0,0.0,Program A,,No,5.0,5.0,5.0,2.0,3.0,4.0,2.0,2.0,5.0,5.0,4.0,4.0,5.0,1.0,4.0,0.0,0.0,0.0,1.0,2.0,0.0,6.0,6.0,6.0,6.0,6.0,0.0,4.0,3.0,4.0,2.0,3.0,4.0,5.0,6.0,1.0,1.0,1.0,6.0,4.0,6.0,6.0,4.0,1.0,3.0,2.0,6.0,2.0,99.0,5.0,99.0,4.0,6.0,2.0,1.0,4.0,99.0,6.0,5.0,6.0,6.0,6.0,5.0,5.0,4.0,6.0,1.0,5.0,4.0,4.0,6.0,1.0,,6.0,5.0,5.0,6.0,6.0,6.0,6.0,6.0,6.0,6.0,1.0,6.0,6.0,1.0,4.0,4.0,1.0,1.0,4.0,2.0,2.0,3.0,1.0,3.0,1.0,1.0,,2.0,3.0,5.0,6.0,6.0,1.0,"This has negatively impacted my mental health, and my OCD has been much worse during this situation.",4.4,4.333333,5.666667,1.0,5.333333,2.333333,1.666667,5.8
106449,3341,2020-03-30 13:50:22,EN,51,Female,PhD/Doctorate,Some College or equivalent,Full time employed,United States,no,iowa,Married/cohabiting,4.0,Yes,Isolated,3.0,0.0,,Program C,No,3.0,5.0,3.0,3.0,3.0,3.0,2.0,1.0,4.0,4.0,3.0,5.0,4.0,8.0,9.0,1.0,6.0,6.0,5.0,10.0,1.0,6.0,5.0,5.0,5.0,5.0,0.0,5.0,6.0,6.0,4.0,4.0,3.0,5.0,3.0,4.0,5.0,3.0,4.0,2.0,5.0,4.0,2.0,5.0,5.0,4.0,2.0,4.0,6.0,6.0,5.0,6.0,6.0,2.0,5.0,2.0,99.0,6.0,5.0,6.0,6.0,4.0,5.0,2.0,3.0,3.0,2.0,5.0,6.0,5.0,6.0,99.0,,5.0,5.0,5.0,5.0,5.0,5.0,5.0,5.0,5.0,5.0,2.0,5.0,5.0,5.0,5.0,3.0,4.0,4.0,3.0,4.0,4.0,5.0,5.0,3.0,5.0,2.0,,2.0,4.0,3.0,4.0,3.0,2.0,,3.7,4.0,3.666667,3.666667,3.666667,5.0,4.333333,5.0
106491,1020,2020-03-30 13:07:38,EN,27,Female,"College degree, bachelor, master",Up to 12 years of school,Self-employed,United States,no,Colorado,Married/cohabiting,1.0,Yes,Life carries on with minor changes,2.0,1.0,,Program C,No,4.0,4.0,4.0,4.0,2.0,4.0,3.0,2.0,4.0,4.0,1.0,3.0,2.0,7.0,8.0,3.0,2.0,2.0,2.0,8.0,3.0,5.0,4.0,6.0,6.0,6.0,0.0,5.0,5.0,5.0,2.0,2.0,3.0,5.0,6.0,4.0,4.0,2.0,4.0,6.0,6.0,5.0,5.0,5.0,5.0,4.0,5.0,6.0,3.0,2.0,2.0,1.0,5.0,2.0,1.0,4.0,2.0,6.0,6.0,5.0,5.0,6.0,1.0,2.0,4.0,2.0,5.0,4.0,4.0,4.0,5.0,5.0,,5.0,6.0,4.0,5.0,5.0,5.0,5.0,6.0,6.0,5.0,4.0,4.0,2.0,4.0,2.0,2.0,4.0,4.0,5.0,4.0,4.0,4.0,2.0,4.0,1.0,2.0,,5.0,5.0,5.0,5.0,5.0,2.0,,3.7,2.0,4.666667,3.0,5.666667,4.0,4.0,5.2
106499,1441,2020-03-30 13:14:00,EN,45,Female,"College degree, bachelor, master",Up to 12 years of school,Full time employed,United States,no,Iowa,Divorced/widowed,2.0,Yes,Isolated,0.0,0.0,,Program D,No,3.0,2.0,3.0,4.0,3.0,2.0,4.0,4.0,3.0,2.0,3.0,2.0,3.0,5.0,7.0,2.0,7.0,5.0,5.0,9.0,2.0,6.0,6.0,6.0,6.0,6.0,0.0,5.0,6.0,6.0,1.0,2.0,3.0,2.0,2.0,5.0,4.0,3.0,5.0,5.0,6.0,5.0,1.0,5.0,6.0,5.0,1.0,6.0,6.0,1.0,1.0,1.0,5.0,1.0,1.0,1.0,1.0,2.0,2.0,6.0,6.0,5.0,1.0,1.0,1.0,1.0,1.0,1.0,1.0,2.0,1.0,1.0,,6.0,6.0,6.0,6.0,6.0,6.0,6.0,6.0,6.0,6.0,2.0,6.0,6.0,1.0,6.0,3.0,4.0,4.0,5.0,5.0,4.0,2.0,2.0,5.0,5.0,3.0,,1.0,6.0,3.0,5.0,5.0,5.0,,2.4,2.666667,2.0,3.0,5.333333,5.666667,5.666667,6.0
106507,715,2020-03-30 13:01:33,EN,28,Male,"College degree, bachelor, master",College degree,Student,United States,no,California,Married/cohabiting,0.0,No,Life carries on with minor changes,1.0,0.0,,Program D,Not sure,2.0,3.0,3.0,4.0,3.0,3.0,3.0,4.0,3.0,3.0,2.0,2.0,1.0,7.0,9.0,5.0,4.0,7.0,5.0,8.0,4.0,5.0,6.0,5.0,6.0,6.0,2.0,5.0,5.0,5.0,2.0,3.0,6.0,5.0,4.0,5.0,6.0,5.0,3.0,5.0,6.0,4.0,2.0,4.0,5.0,6.0,3.0,6.0,4.0,6.0,99.0,6.0,4.0,5.0,1.0,4.0,99.0,6.0,5.0,4.0,6.0,5.0,5.0,5.0,2.0,2.0,5.0,5.0,2.0,3.0,5.0,2.0,,6.0,6.0,5.0,6.0,6.0,5.0,6.0,5.0,6.0,6.0,4.0,4.0,5.0,5.0,4.0,5.0,3.0,2.0,6.0,5.0,4.0,4.0,4.0,3.0,1.0,4.0,,6.0,6.0,4.0,5.0,6.0,1.0,,2.7,1.666667,3.666667,5.0,5.0,4.666667,5.333333,5.7
106542,1404,2020-03-30 13:10:32,EN,29,Male,PhD/Doctorate,Up to 12 years of school,Student,United States,yes,Massachusetts,Single,0.0,Yes,Isolated,2.0,0.0,,Program D,No,1.0,3.0,5.0,3.0,3.0,3.0,3.0,3.0,3.0,3.0,2.0,3.0,3.0,6.0,9.0,9.0,10.0,8.0,7.0,0.0,10.0,5.0,6.0,4.0,6.0,4.0,5.0,4.0,3.0,3.0,3.0,5.0,6.0,5.0,6.0,3.0,5.0,5.0,2.0,5.0,3.0,5.0,2.0,4.0,4.0,4.0,5.0,5.0,3.0,5.0,99.0,99.0,6.0,6.0,99.0,4.0,99.0,2.0,6.0,6.0,5.0,4.0,4.0,5.0,1.0,5.0,6.0,4.0,5.0,2.0,6.0,3.0,,6.0,6.0,6.0,6.0,6.0,6.0,5.0,6.0,4.0,6.0,5.0,5.0,6.0,1.0,1.0,2.0,3.0,2.0,4.0,4.0,4.0,2.0,4.0,6.0,2.0,5.0,"Self-care, including reorganizing my home, reading books long postponed",6.0,6.0,6.0,3.0,6.0,1.0,"I feel extremely stressed by some scenarios that push employers to squeeze out normal or even higher productivity during this pandemic. In many cases I heard of or experienced, many employers believe they will gain an edge over competitors by not following the measures against the pandemic and keep their working styles as usual. It's a bad Nash equilibrium. It's stressful because it's a collective behavior that me as an individual is hard to change.",3.0,2.666667,5.0,5.0,4.333333,4.333333,3.666667,5.7
106565,1372,2020-03-30 13:07:44,LT,62,Male,"College degree, bachelor, master",Up to 12 years of school,Full time employed,United States,yes,Illinois,Married/cohabiting,4.0,Yes,Life carries on with minor changes,3.0,1.0,,,,1.0,1.0,2.0,4.0,3.0,2.0,3.0,4.0,3.0,2.0,2.0,1.0,1.0,7.0,9.0,5.0,7.0,6.0,8.0,5.0,5.0,5.0,5.0,5.0,5.0,5.0,0.0,5.0,5.0,5.0,2.0,4.0,5.0,3.0,4.0,4.0,4.0,3.0,5.0,4.0,5.0,5.0,4.0,4.0,4.0,3.0,4.0,4.0,2.0,3.0,99.0,3.0,2.0,2.0,2.0,2.0,2.0,4.0,2.0,4.0,5.0,2.0,2.0,2.0,2.0,5.0,3.0,2.0,2.0,4.0,2.0,4.0,,5.0,5.0,5.0,5.0,5.0,3.0,5.0,5.0,4.0,5.0,4.0,5.0,5.0,4.0,5.0,5.0,,4.0,5.0,5.0,5.0,4.0,5.0,4.0,5.0,5.0,,5.0,5.0,5.0,5.0,5.0,,,2.1,1.333333,3.333333,3.0,4.666667,3.666667,3.333333,4.7
106590,734,2020-03-30 12:54:34,ZH-T,39,Male,PhD/Doctorate,Some College or equivalent,Full time employed,United States,yes,Minnesota,Single,0.0,Yes,Life carries on with minor changes,0.0,0.0,,Program D,No,3.0,3.0,3.0,2.0,1.0,4.0,4.0,3.0,1.0,2.0,4.0,1.0,2.0,5.0,7.0,5.0,6.0,7.0,6.0,1.0,4.0,5.0,5.0,4.0,5.0,3.0,7.0,6.0,6.0,5.0,2.0,4.0,5.0,4.0,4.0,5.0,5.0,5.0,2.0,5.0,5.0,5.0,2.0,5.0,5.0,5.0,3.0,5.0,6.0,5.0,1.0,6.0,4.0,2.0,2.0,2.0,1.0,5.0,3.0,6.0,6.0,4.0,2.0,1.0,2.0,4.0,6.0,2.0,6.0,2.0,6.0,1.0,,5.0,5.0,3.0,4.0,6.0,5.0,5.0,6.0,5.0,5.0,5.0,5.0,5.0,5.0,5.0,5.0,5.0,5.0,5.0,5.0,5.0,5.0,4.0,5.0,2.0,5.0,,5.0,5.0,5.0,5.0,5.0,5.0,,3.0,2.333333,3.333333,5.0,5.0,5.0,4.666667,4.9
106593,930,2020-03-30 12:57:22,EN,49,Male,"College degree, bachelor, master",College degree,Full time employed,United States,no,Texas,Married/cohabiting,0.0,Yes,Life carries on with minor changes,1.0,0.0,Program A,,No,3.0,3.0,2.0,5.0,3.0,2.0,5.0,5.0,3.0,2.0,1.0,1.0,2.0,8.0,10.0,3.0,8.0,7.0,6.0,8.0,4.0,5.0,5.0,5.0,6.0,5.0,,5.0,4.0,4.0,2.0,4.0,5.0,4.0,2.0,4.0,6.0,5.0,2.0,5.0,5.0,5.0,5.0,5.0,5.0,4.0,4.0,5.0,6.0,4.0,99.0,6.0,2.0,5.0,6.0,2.0,99.0,4.0,4.0,4.0,4.0,4.0,2.0,4.0,2.0,2.0,2.0,2.0,2.0,2.0,5.0,3.0,Local economy- small local businesses,6.0,6.0,6.0,6.0,6.0,5.0,6.0,6.0,5.0,6.0,1.0,5.0,5.0,5.0,6.0,4.0,1.0,1.0,4.0,5.0,5.0,1.0,5.0,5.0,6.0,2.0,,4.0,6.0,2.0,4.0,2.0,2.0,,2.1,1.333333,3.0,5.333333,5.0,4.0,4.0,5.8
106621,645,2020-03-30 12:49:54,EN,42,Female,"College degree, bachelor, master",College degree,Full time employed,United States,no,Kentucky,Married/cohabiting,2.0,Yes,Isolated,1.0,2.0,,Program C,No,2.0,4.0,4.0,4.0,3.0,3.0,3.0,3.0,2.0,2.0,1.0,4.0,4.0,6.0,10.0,2.0,7.0,6.0,7.0,7.0,,2.0,4.0,4.0,6.0,6.0,0.0,5.0,6.0,5.0,2.0,2.0,4.0,4.0,3.0,4.0,4.0,3.0,5.0,4.0,4.0,4.0,4.0,3.0,4.0,5.0,4.0,5.0,2.0,4.0,6.0,2.0,4.0,4.0,1.0,3.0,6.0,5.0,5.0,5.0,4.0,4.0,1.0,4.0,2.0,5.0,4.0,1.0,4.0,1.0,4.0,2.0,,6.0,6.0,6.0,6.0,6.0,5.0,6.0,6.0,5.0,6.0,1.0,1.0,6.0,1.0,3.0,4.0,1.0,1.0,4.0,3.0,3.0,4.0,4.0,5.0,1.0,1.0,,2.0,6.0,5.0,2.0,3.0,5.0,,2.8,3.0,3.333333,3.0,4.0,3.333333,4.333333,5.8
106622,1937,2020-03-30 13:11:20,EN,22,Female,"Some College, short continuing education or equivalent",Up to 12 years of school,Part time employed,United States,no,Florida,Single,0.0,No,Life carries on with minor changes,2.0,0.0,Program A,,No,3.0,3.0,4.0,3.0,3.0,4.0,2.0,2.0,2.0,4.0,2.0,3.0,2.0,6.0,8.0,4.0,3.0,6.0,2.0,4.0,3.0,2.0,4.0,3.0,3.0,4.0,0.0,4.0,4.0,4.0,2.0,4.0,3.0,6.0,5.0,6.0,6.0,6.0,3.0,3.0,6.0,4.0,2.0,6.0,6.0,4.0,5.0,6.0,6.0,6.0,5.0,6.0,4.0,3.0,1.0,6.0,2.0,6.0,5.0,6.0,5.0,6.0,99.0,3.0,4.0,4.0,2.0,2.0,4.0,5.0,6.0,6.0,,6.0,6.0,6.0,6.0,6.0,6.0,6.0,6.0,6.0,6.0,3.0,5.0,6.0,5.0,2.0,5.0,6.0,6.0,4.0,5.0,5.0,4.0,2.0,5.0,1.0,2.0,,2.0,2.0,2.0,5.0,2.0,2.0,,3.4,2.333333,4.0,5.333333,4.333333,5.666667,4.0,6.0
106627,776,2020-03-30 12:51:22,EN,52,Male,"College degree, bachelor, master",College degree,Self-employed,United States,no,MI,Single,2.0,Yes,Isolated,1.0,2.0,,Program C,No,3.0,3.0,3.0,4.0,1.0,3.0,3.0,3.0,4.0,3.0,3.0,3.0,4.0,6.0,6.0,4.0,6.0,7.0,5.0,7.0,4.0,6.0,6.0,6.0,6.0,6.0,3.0,5.0,6.0,6.0,6.0,2.0,4.0,3.0,2.0,5.0,6.0,5.0,2.0,5.0,5.0,5.0,2.0,5.0,6.0,4.0,2.0,5.0,6.0,5.0,6.0,5.0,4.0,5.0,1.0,5.0,5.0,6.0,4.0,5.0,5.0,5.0,4.0,4.0,2.0,4.0,5.0,4.0,3.0,2.0,6.0,4.0,,6.0,6.0,6.0,6.0,6.0,5.0,6.0,6.0,6.0,6.0,2.0,2.0,5.0,2.0,5.0,5.0,2.0,2.0,5.0,5.0,2.0,2.0,4.0,5.0,2.0,3.0,,5.0,5.0,5.0,5.0,5.0,5.0,,3.2,3.333333,2.333333,5.333333,5.0,5.333333,4.666667,5.9
106652,1084,2020-03-30 12:54:20,EN,18,Female,Up to 12 years of school,Up to 12 years of school,Part time employed,United States,no,TX,Single,0.0,No,Life carries on with minor changes,,,Program B,,No,3.0,3.0,4.0,3.0,3.0,2.0,4.0,2.0,3.0,2.0,1.0,2.0,2.0,4.0,8.0,3.0,6.0,6.0,5.0,5.0,2.0,2.0,3.0,3.0,5.0,4.0,3.0,4.0,6.0,6.0,4.0,4.0,3.0,4.0,6.0,2.0,5.0,5.0,2.0,3.0,3.0,4.0,5.0,4.0,5.0,4.0,4.0,4.0,6.0,4.0,99.0,4.0,6.0,6.0,5.0,5.0,5.0,5.0,5.0,4.0,4.0,6.0,6.0,6.0,3.0,4.0,6.0,3.0,4.0,4.0,6.0,6.0,,6.0,6.0,6.0,5.0,6.0,5.0,5.0,5.0,5.0,5.0,2.0,4.0,4.0,3.0,3.0,5.0,2.0,4.0,,4.0,3.0,4.0,4.0,3.0,5.0,6.0,,2.0,3.0,3.0,4.0,5.0,3.0,,2.9,1.666667,5.0,5.0,3.333333,3.666667,3.666667,5.4
106659,1878,2020-03-30 13:07:12,ZH-T,21,Female,"College degree, bachelor, master",PhD/Doctorate,Student,United States,yes,Minnesota,Single,0.0,Not sure,Isolated,0.0,0.0,,Program D,No,3.0,2.0,3.0,4.0,3.0,3.0,2.0,3.0,3.0,3.0,2.0,1.0,1.0,3.0,5.0,1.0,1.0,1.0,0.0,0.0,0.0,4.0,4.0,4.0,6.0,6.0,1.0,5.0,5.0,5.0,4.0,3.0,5.0,4.0,3.0,5.0,4.0,4.0,3.0,3.0,2.0,3.0,4.0,4.0,4.0,3.0,4.0,4.0,6.0,99.0,99.0,5.0,5.0,1.0,99.0,99.0,99.0,5.0,5.0,6.0,99.0,5.0,4.0,4.0,99.0,2.0,1.0,99.0,5.0,4.0,5.0,4.0,,4.0,4.0,4.0,3.0,4.0,3.0,4.0,3.0,3.0,4.0,2.0,3.0,4.0,3.0,4.0,4.0,5.0,5.0,6.0,3.0,3.0,3.0,4.0,6.0,2.0,2.0,,3.0,4.0,4.0,3.0,4.0,3.0,,2.9,1.333333,3.0,4.0,2.666667,3.666667,3.333333,3.6
106682,1367,2020-03-30 12:56:04,EN,71,Female,"College degree, bachelor, master",College degree,Retired,United States,no,Virginia,Married/cohabiting,0.0,Yes,Isolated,1.0,0.0,,Program D,No,2.0,3.0,5.0,3.0,3.0,3.0,4.0,3.0,2.0,3.0,2.0,3.0,4.0,6.0,9.0,4.0,9.0,7.0,7.0,9.0,3.0,6.0,6.0,6.0,6.0,6.0,1.0,6.0,6.0,6.0,2.0,3.0,3.0,4.0,3.0,5.0,6.0,4.0,3.0,4.0,5.0,4.0,2.0,5.0,6.0,3.0,3.0,5.0,2.0,99.0,99.0,99.0,5.0,4.0,99.0,4.0,99.0,6.0,2.0,6.0,5.0,5.0,99.0,4.0,1.0,4.0,4.0,2.0,4.0,3.0,5.0,99.0,,5.0,5.0,4.0,4.0,5.0,4.0,4.0,6.0,4.0,5.0,3.0,3.0,6.0,3.0,4.0,5.0,1.0,1.0,4.0,4.0,4.0,4.0,4.0,5.0,4.0,2.0,,4.0,4.0,4.0,3.0,3.0,3.0,,2.9,3.0,3.0,4.666667,4.333333,5.333333,4.0,4.6
106712,931,2020-03-30 12:46:11,EN,50,Female,PhD/Doctorate,College degree,,United States,no,Iowa,Married/cohabiting,2.0,No,Isolated,3.0,0.0,,Program D,No,2.0,1.0,3.0,5.0,3.0,1.0,4.0,4.0,1.0,1.0,2.0,1.0,3.0,8.0,9.0,2.0,3.0,5.0,2.0,8.0,0.0,4.0,5.0,4.0,6.0,6.0,1.0,6.0,6.0,5.0,2.0,5.0,5.0,5.0,4.0,5.0,3.0,2.0,4.0,6.0,6.0,6.0,4.0,5.0,5.0,2.0,2.0,5.0,2.0,4.0,4.0,99.0,2.0,3.0,1.0,2.0,99.0,2.0,4.0,5.0,5.0,6.0,4.0,3.0,99.0,4.0,3.0,3.0,3.0,1.0,4.0,2.0,,6.0,5.0,5.0,5.0,6.0,5.0,6.0,6.0,5.0,5.0,2.0,1.0,6.0,3.0,6.0,6.0,1.0,1.0,4.0,3.0,3.0,2.0,4.0,5.0,1.0,2.0,,2.0,5.0,6.0,5.0,5.0,5.0,,1.7,2.0,3.666667,2.666667,6.0,4.333333,4.0,5.4
106715,740,2020-03-30 12:42:40,ZH-T,74,Female,PhD/Doctorate,Up to 12 years of school,Self-employed,United States,no,"Las Vegas, Nevada, USA",Married/cohabiting,0.0,Yes,Isolated,1.0,2.0,Program B,,,1.0,1.0,2.0,4.0,4.0,1.0,5.0,3.0,1.0,1.0,1.0,1.0,1.0,8.0,9.0,8.0,8.0,7.0,7.0,2.0,8.0,4.0,3.0,4.0,6.0,4.0,2.0,4.0,5.0,6.0,1.0,6.0,5.0,1.0,4.0,5.0,6.0,6.0,1.0,5.0,4.0,2.0,1.0,6.0,6.0,1.0,4.0,6.0,5.0,6.0,99.0,4.0,6.0,4.0,6.0,6.0,6.0,6.0,99.0,6.0,6.0,4.0,6.0,6.0,5.0,1.0,6.0,6.0,6.0,6.0,6.0,6.0,,,,,,,,,,,,,,,,,,,,,,,,,,,,,1.0,1.0,1.0,4.0,1.0,1.0,,1.5,1.0,2.333333,6.0,3.666667,6.0,3.333333,
106772,2401,2020-03-30 13:05:45,EN,26,Female,PhD/Doctorate,Some College or equivalent,Student,United States,no,Texas,Single,0.0,Yes,Isolated,0.0,0.0,Program B,,No,5.0,5.0,5.0,2.0,2.0,5.0,3.0,2.0,5.0,5.0,5.0,5.0,5.0,5.0,10.0,4.0,10.0,7.0,3.0,6.0,3.0,6.0,6.0,6.0,6.0,6.0,2.0,6.0,6.0,5.0,6.0,3.0,6.0,5.0,6.0,3.0,3.0,1.0,6.0,4.0,6.0,4.0,5.0,5.0,6.0,5.0,4.0,6.0,99.0,6.0,99.0,6.0,2.0,6.0,99.0,99.0,99.0,6.0,6.0,6.0,6.0,6.0,6.0,6.0,6.0,6.0,6.0,2.0,6.0,6.0,6.0,99.0,,6.0,6.0,6.0,6.0,6.0,4.0,6.0,6.0,5.0,6.0,2.0,6.0,6.0,4.0,6.0,6.0,1.0,1.0,4.0,5.0,5.0,3.0,3.0,6.0,2.0,4.0,,4.0,5.0,1.0,5.0,5.0,2.0,,4.5,5.0,5.0,1.666667,4.666667,4.333333,4.666667,5.7
106835,14483,2020-03-30 16:22:36,EN,44,Female,PhD/Doctorate,Up to 12 years of school,Full time employed,United States,no,AZ,Single,1.0,Yes,Isolated,1.0,3.0,,Program D,Yes,4.0,4.0,4.0,4.0,3.0,2.0,4.0,4.0,4.0,2.0,2.0,2.0,4.0,6.0,8.0,1.0,5.0,5.0,1.0,8.0,,1.0,5.0,5.0,5.0,5.0,0.0,5.0,4.0,5.0,2.0,2.0,2.0,5.0,2.0,5.0,4.0,4.0,3.0,5.0,5.0,5.0,3.0,4.0,5.0,5.0,2.0,5.0,2.0,5.0,6.0,2.0,2.0,5.0,1.0,99.0,6.0,6.0,2.0,6.0,5.0,6.0,2.0,2.0,2.0,5.0,2.0,5.0,,2.0,6.0,6.0,,6.0,6.0,6.0,6.0,6.0,6.0,6.0,6.0,6.0,6.0,2.0,6.0,6.0,2.0,6.0,4.0,2.0,1.0,5.0,2.0,1.0,2.0,2.0,4.0,1.0,3.0,,5.0,5.0,5.0,5.0,5.0,2.0,,2.9,2.666667,3.0,4.0,5.0,4.333333,5.0,6.0
106853,672,2020-03-31 12:30:33,S-CO,30,Female,"College degree, bachelor, master",College degree,Full time employed,United States,yes,"Miami,florida",Other or would rather not say,1.0,Yes,Isolated,0.0,0.0,,Program C,No,5.0,3.0,5.0,2.0,3.0,4.0,3.0,2.0,4.0,3.0,5.0,3.0,3.0,5.0,5.0,2.0,1.0,2.0,4.0,6.0,5.0,4.0,6.0,6.0,6.0,6.0,4.0,6.0,6.0,6.0,4.0,2.0,5.0,,,,,,,,,,,,,,,,,,,,,,,,,,,,,,,,,,,,,,,,,,,,,,,,,,,,,,,,,,,,,,,,,,,,,,,,,,,3.8,3.666667,,,,,,
106862,1652,2020-03-31 12:46:17,EN,73,Female,"Some College, short continuing education or equivalent",Up to 12 years of school,Retired,United States,no,Michigan,Married/cohabiting,0.0,Yes,Isolated,1.0,0.0,,Program D,No,3.0,2.0,2.0,4.0,3.0,2.0,4.0,3.0,2.0,2.0,1.0,2.0,2.0,7.0,9.0,4.0,7.0,6.0,10.0,7.0,2.0,4.0,5.0,5.0,6.0,5.0,3.0,5.0,6.0,5.0,2.0,3.0,4.0,4.0,3.0,3.0,5.0,3.0,3.0,4.0,5.0,2.0,2.0,5.0,5.0,3.0,4.0,3.0,4.0,99.0,99.0,99.0,5.0,4.0,99.0,4.0,99.0,5.0,5.0,5.0,5.0,4.0,99.0,2.0,2.0,2.0,2.0,2.0,4.0,2.0,5.0,3.0,,3.0,5.0,5.0,5.0,5.0,4.0,5.0,5.0,4.0,5.0,2.0,3.0,5.0,2.0,5.0,5.0,2.0,2.0,5.0,3.0,4.0,3.0,4.0,5.0,2.0,2.0,,2.0,2.0,2.0,2.0,3.0,2.0,,2.3,1.666667,3.666667,4.0,3.666667,5.0,3.0,4.6
106865,2270,2020-03-30 12:56:05,EN,18,Female,"Some College, short continuing education or equivalent",Up to 6 years of school,Part time employed,United States,no,,Single,0.0,Yes,Life carries on with minor changes,2.0,0.0,,Program C,No,3.0,4.0,4.0,3.0,3.0,4.0,4.0,3.0,3.0,3.0,4.0,1.0,2.0,5.0,5.0,2.0,1.0,3.0,1.0,4.0,0.0,1.0,6.0,6.0,6.0,6.0,0.0,5.0,6.0,6.0,2.0,3.0,3.0,6.0,4.0,4.0,6.0,5.0,3.0,6.0,6.0,6.0,2.0,3.0,6.0,6.0,1.0,4.0,5.0,2.0,99.0,5.0,2.0,1.0,6.0,4.0,99.0,5.0,5.0,6.0,99.0,6.0,4.0,3.0,99.0,1.0,1.0,4.0,4.0,4.0,6.0,1.0,,5.0,5.0,5.0,5.0,5.0,5.0,5.0,5.0,4.0,5.0,4.0,5.0,6.0,3.0,4.0,3.0,1.0,1.0,5.0,6.0,4.0,4.0,5.0,6.0,6.0,3.0,,5.0,5.0,5.0,3.0,1.0,1.0,,3.2,2.333333,4.333333,5.0,6.0,4.666667,5.333333,4.9
106870,802,2020-03-30 12:31:11,EN,55,Male,"College degree, bachelor, master",PhD/Doctorate,Part time employed,United States,no,Iowa,Married/cohabiting,0.0,Yes,Isolated,1.0,0.0,Program A,,No,2.0,3.0,3.0,4.0,4.0,3.0,4.0,3.0,2.0,3.0,1.0,1.0,1.0,6.0,6.0,0.0,8.0,8.0,5.0,7.0,0.0,5.0,5.0,5.0,6.0,6.0,0.0,5.0,6.0,6.0,1.0,1.0,5.0,3.0,2.0,5.0,3.0,1.0,5.0,6.0,4.0,6.0,5.0,4.0,5.0,4.0,4.0,5.0,1.0,5.0,99.0,1.0,5.0,1.0,1.0,1.0,99.0,99.0,3.0,5.0,5.0,5.0,6.0,1.0,2.0,1.0,1.0,1.0,1.0,1.0,3.0,99.0,,6.0,6.0,6.0,6.0,6.0,6.0,6.0,6.0,6.0,6.0,1.0,4.0,4.0,4.0,4.0,5.0,1.0,1.0,6.0,5.0,4.0,6.0,6.0,4.0,6.0,1.0,,1.0,6.0,6.0,6.0,6.0,4.0,,2.5,1.0,2.333333,2.0,5.333333,3.666667,4.0,6.0
106930,5038,2020-03-30 13:37:44,ZH-T,30,Female,PhD/Doctorate,PhD/Doctorate,Student,United States,no,Minneapolis,Single,0.0,No,Isolated,0.0,0.0,Program B,,,3.0,2.0,4.0,2.0,2.0,4.0,4.0,3.0,1.0,3.0,2.0,1.0,2.0,7.0,10.0,7.0,8.0,7.0,5.0,1.0,5.0,5.0,4.0,4.0,5.0,5.0,4.0,3.0,6.0,6.0,2.0,6.0,5.0,6.0,4.0,4.0,5.0,5.0,3.0,3.0,4.0,4.0,2.0,5.0,6.0,4.0,5.0,5.0,6.0,4.0,99.0,6.0,4.0,2.0,99.0,99.0,99.0,4.0,3.0,5.0,99.0,6.0,4.0,3.0,3.0,4.0,2.0,4.0,5.0,2.0,5.0,1.0,,5.0,6.0,6.0,5.0,5.0,5.0,6.0,6.0,5.0,5.0,3.0,4.0,6.0,4.0,5.0,6.0,4.0,6.0,5.0,6.0,5.0,5.0,3.0,6.0,2.0,5.0,,5.0,3.0,3.0,5.0,5.0,3.0,,3.0,1.666667,4.333333,4.666667,3.666667,5.333333,3.666667,5.4
106959,1048,2020-03-30 12:29:19,EN,27,Female,"College degree, bachelor, master",College degree,Student,United States,no,Texas,Married/cohabiting,0.0,Yes,Isolated,1.0,0.0,,Program D,No,4.0,4.0,5.0,2.0,2.0,5.0,2.0,2.0,3.0,5.0,1.0,1.0,4.0,3.0,9.0,3.0,7.0,2.0,,5.0,,5.0,6.0,3.0,6.0,5.0,0.0,5.0,3.0,3.0,2.0,1.0,5.0,6.0,6.0,3.0,3.0,4.0,3.0,5.0,4.0,3.0,4.0,5.0,4.0,4.0,4.0,4.0,6.0,6.0,99.0,6.0,4.0,2.0,99.0,4.0,99.0,5.0,4.0,6.0,6.0,6.0,99.0,3.0,4.0,2.0,6.0,3.0,5.0,3.0,5.0,1.0,,6.0,6.0,6.0,6.0,6.0,6.0,6.0,6.0,6.0,6.0,1.0,4.0,6.0,1.0,4.0,5.0,6.0,1.0,6.0,5.0,3.0,2.0,4.0,4.0,1.0,1.0,,1.0,4.0,4.0,6.0,6.0,1.0,,4.2,2.0,5.333333,3.666667,4.0,4.0,3.666667,6.0
106962,519,2020-03-31 12:20:43,ZH-T,42,Female,PhD/Doctorate,Up to 9 years of school,Full time employed,United States,yes,Texas,Single,0.0,No,Life carries on with minor changes,0.0,0.0,Program A,,No,2.0,2.0,2.0,4.0,4.0,2.0,2.0,4.0,2.0,2.0,1.0,1.0,1.0,7.0,9.0,6.0,6.0,7.0,6.0,,8.0,4.0,4.0,4.0,4.0,4.0,5.0,5.0,5.0,5.0,5.0,5.0,5.0,2.0,2.0,5.0,5.0,5.0,2.0,5.0,5.0,5.0,2.0,2.0,5.0,5.0,3.0,5.0,,,,,,,,,,,,,,,,,,,,,,,,,,,,,,,,,,,,,,,,,,,,,,,,,,,,,,,,,,,,2.2,1.0,2.0,5.0,5.0,4.0,4.666667,
107000,604,2020-03-30 12:18:25,LT,39,Female,"College degree, bachelor, master",College degree,Full time employed,United States,yes,Minnesota,Married/cohabiting,1.0,No,Life carries on with minor changes,0.0,1.0,Program A,,No,2.0,2.0,2.0,4.0,4.0,2.0,4.0,4.0,3.0,2.0,4.0,2.0,3.0,5.0,9.0,1.0,9.0,8.0,9.0,1.0,5.0,5.0,4.0,4.0,4.0,3.0,0.0,6.0,6.0,6.0,5.0,5.0,4.0,2.0,2.0,5.0,5.0,6.0,2.0,6.0,4.0,5.0,2.0,5.0,5.0,4.0,2.0,6.0,2.0,2.0,2.0,2.0,4.0,5.0,1.0,2.0,2.0,5.0,2.0,4.0,5.0,5.0,6.0,2.0,2.0,2.0,2.0,2.0,2.0,2.0,4.0,2.0,,5.0,5.0,5.0,5.0,5.0,5.0,5.0,5.0,5.0,5.0,4.0,5.0,6.0,5.0,4.0,5.0,5.0,5.0,2.0,3.0,5.0,3.0,6.0,4.0,2.0,4.0,Na,4.0,5.0,5.0,4.0,5.0,4.0,,2.1,3.0,2.0,5.333333,5.0,5.0,5.0,5.0
107005,828,2020-03-31 12:21:49,EN,21,Female,"College degree, bachelor, master",College degree,Student,United States,no,Texas,Single,0.0,Yes,Isolated,3.0,0.0,,Program C,No,5.0,4.0,5.0,3.0,1.0,2.0,3.0,3.0,3.0,3.0,5.0,4.0,,5.0,10.0,5.0,5.0,4.0,10.0,10.0,4.0,6.0,6.0,5.0,6.0,6.0,0.0,6.0,4.0,6.0,4.0,3.0,4.0,5.0,5.0,3.0,5.0,4.0,3.0,3.0,4.0,4.0,1.0,4.0,4.0,5.0,4.0,5.0,99.0,5.0,99.0,5.0,1.0,5.0,5.0,1.0,1.0,99.0,99.0,99.0,99.0,4.0,99.0,6.0,6.0,99.0,5.0,6.0,2.0,2.0,99.0,2.0,,6.0,4.0,6.0,2.0,5.0,6.0,6.0,6.0,3.0,6.0,3.0,1.0,6.0,4.0,6.0,,1.0,1.0,5.0,4.0,3.0,4.0,4.0,5.0,6.0,4.0,,6.0,4.0,6.0,4.0,1.0,1.0,,3.6,4.5,4.666667,4.333333,3.666667,4.666667,4.333333,5.0
107037,190,2020-03-31 12:08:49,EN,44,Male,"College degree, bachelor, master",College degree,Full time employed,United States,no,CA,Single,0.0,Yes,Life carries on with minor changes,,,Program A,,No,2.0,4.0,4.0,4.0,3.0,3.0,4.0,3.0,2.0,2.0,4.0,3.0,4.0,,,,,,,,,,,,,,,,,,,,,,,,,,,,,,,,,,,,,,,,,,,,,,,,,,,,,,,,,,,,,,,,,,,,,,,,,,,,,,,,,,,,,,,,,,,,,,,2.7,3.666667,,,,,,
107058,669,2020-03-31 12:14:50,EN,39,Male,PhD/Doctorate,College degree,Full time employed,United States,no,CT,Married/cohabiting,2.0,No,Isolated,1.0,2.0,,Program C,Yes,,,,,,,,,,,,,,,,,,,,,,,,,,,,,,,,,,,,,,,,,,,,,,,,,,,,,,,,,,,,,,,,,,,,,,,,,,,,,,,,,,,,,,,,,,,,,,,,,,,,,,,,,,,,,,,,,,,
107103,944,2020-03-30 12:13:47,LT,32,Female,PhD/Doctorate,Some College or equivalent,Not employed,United States,no,Texas,Married/cohabiting,0.0,No,Life carries on with minor changes,1.0,0.0,Program A,,No,2.0,2.0,2.0,4.0,3.0,2.0,4.0,4.0,2.0,1.0,3.0,2.0,2.0,7.0,9.0,3.0,7.0,7.0,1.0,8.0,0.0,2.0,6.0,4.0,3.0,4.0,1.0,6.0,6.0,6.0,1.0,2.0,3.0,3.0,6.0,5.0,5.0,5.0,6.0,6.0,6.0,6.0,2.0,5.0,4.0,6.0,4.0,5.0,4.0,1.0,99.0,5.0,3.0,4.0,1.0,4.0,99.0,5.0,2.0,2.0,4.0,4.0,99.0,2.0,2.0,3.0,4.0,1.0,1.0,1.0,2.0,3.0,,6.0,6.0,6.0,6.0,6.0,6.0,6.0,6.0,6.0,6.0,4.0,5.0,6.0,2.0,6.0,1.0,1.0,1.0,4.0,3.0,3.0,6.0,2.0,4.0,1.0,4.0,,5.0,2.0,6.0,4.0,5.0,1.0,,2.0,2.333333,3.666667,3.666667,6.0,4.666667,4.666667,6.0
107124,486,2020-03-30 12:04:29,EN,22,Female,"Some College, short continuing education or equivalent",College degree,Not employed,United States,no,Florida,Single,0.0,Yes,Isolated,3.0,1.0,,Program C,No,4.0,4.0,4.0,3.0,1.0,3.0,3.0,2.0,4.0,3.0,2.0,3.0,2.0,4.0,8.0,0.0,2.0,3.0,1.0,7.0,0.0,5.0,6.0,5.0,5.0,5.0,1.0,4.0,5.0,5.0,2.0,2.0,4.0,6.0,5.0,3.0,6.0,3.0,4.0,6.0,6.0,6.0,5.0,4.0,3.0,3.0,6.0,4.0,6.0,3.0,2.0,6.0,5.0,5.0,2.0,6.0,6.0,6.0,5.0,6.0,6.0,6.0,6.0,6.0,3.0,3.0,5.0,4.0,4.0,2.0,6.0,2.0,,6.0,4.0,4.0,5.0,5.0,5.0,5.0,4.0,6.0,5.0,1.0,4.0,4.0,2.0,4.0,6.0,5.0,4.0,4.0,3.0,4.0,3.0,6.0,6.0,1.0,4.0,,4.0,4.0,4.0,3.0,4.0,2.0,"Lost my job, lost various other job opportunities in past and in the future. Currently out approximately $5,000 USD in expected income.",3.7,2.333333,5.0,4.0,6.0,3.0,2.666667,4.9
107130,367,2020-03-31 12:01:35,EN,39,Female,"Some College, short continuing education or equivalent",College degree,Self-employed,United States,no,Washington,Divorced/widowed,1.0,Yes,Isolated,1.0,1.0,,Program D,Yes,2.0,3.0,4.0,5.0,5.0,4.0,3.0,4.0,2.0,3.0,1.0,2.0,4.0,7.0,10.0,1.0,9.0,4.0,1.0,8.0,5.0,6.0,6.0,6.0,6.0,6.0,2.0,5.0,6.0,6.0,1.0,1.0,6.0,2.0,2.0,6.0,6.0,5.0,2.0,6.0,6.0,3.0,3.0,2.0,4.0,5.0,3.0,6.0,,,,,,,,,,,,,,,,,,,,,,,,,,,,,,,,,,,,,,,,,,,,,,,,,,,,,,,,,,,,2.5,2.333333,1.666667,5.333333,5.0,3.333333,5.0,
107132,408,2020-03-31 12:02:11,ZH-T,37,Male,PhD/Doctorate,Up to 12 years of school,Full time employed,United States,yes,Texas,Single,0.0,No,Life carries on with minor changes,1.0,0.0,Program A,,Yes,2.0,2.0,2.0,4.0,1.0,4.0,4.0,3.0,1.0,2.0,2.0,1.0,2.0,6.0,9.0,8.0,8.0,9.0,9.0,,10.0,4.0,5.0,4.0,5.0,6.0,4.0,5.0,6.0,6.0,6.0,2.0,6.0,3.0,3.0,5.0,6.0,6.0,1.0,4.0,6.0,4.0,2.0,6.0,6.0,4.0,1.0,4.0,4.0,1.0,99.0,1.0,1.0,4.0,99.0,99.0,99.0,6.0,6.0,5.0,5.0,6.0,1.0,1.0,1.0,1.0,1.0,2.0,5.0,1.0,5.0,1.0,,,,,,,,,,,,,,,,,,,,,,,,,,,,,,,,,,,,2.5,1.666667,2.666667,6.0,4.666667,5.666667,4.666667,
107177,1131,2020-03-31 12:11:28,EN,49,Male,PhD/Doctorate,Up to 12 years of school,Full time employed,United States,no,Iowa,Married/cohabiting,2.0,Yes,Isolated,1.0,2.0,Program B,,Yes,4.0,3.0,5.0,3.0,2.0,4.0,4.0,2.0,4.0,3.0,2.0,3.0,3.0,7.0,9.0,6.0,7.0,8.0,8.0,9.0,4.0,6.0,6.0,6.0,6.0,6.0,2.0,6.0,6.0,6.0,4.0,4.0,6.0,6.0,6.0,2.0,2.0,3.0,5.0,6.0,5.0,5.0,1.0,5.0,5.0,6.0,4.0,5.0,1.0,5.0,5.0,2.0,1.0,3.0,1.0,4.0,5.0,6.0,5.0,5.0,5.0,4.0,1.0,3.0,3.0,3.0,5.0,4.0,3.0,1.0,4.0,1.0,,5.0,5.0,5.0,4.0,6.0,5.0,5.0,6.0,5.0,5.0,2.0,4.0,2.0,2.0,4.0,3.0,5.0,5.0,5.0,2.0,4.0,3.0,5.0,5.0,1.0,2.0,,5.0,5.0,5.0,2.0,5.0,2.0,I wish you would you have asked about alcohol and drug consumption changes now.  I went back to drinking after a long dry spell.,3.6,2.666667,5.666667,2.333333,5.333333,5.333333,4.666667,5.1
107185,1323,2020-03-30 12:13:24,EN,35,Male,,,Not employed,United States,no,ohio,Divorced/widowed,2.0,Yes,Isolated,1.0,1.0,,Program C,No,3.0,3.0,3.0,5.0,2.0,3.0,3.0,4.0,3.0,2.0,3.0,4.0,4.0,10.0,9.0,5.0,8.0,8.0,8.0,,8.0,6.0,6.0,6.0,6.0,6.0,5.0,5.0,6.0,6.0,6.0,4.0,4.0,3.0,3.0,4.0,6.0,6.0,4.0,5.0,4.0,6.0,4.0,3.0,3.0,4.0,6.0,4.0,6.0,4.0,6.0,6.0,3.0,6.0,6.0,5.0,2.0,6.0,6.0,4.0,4.0,4.0,5.0,6.0,4.0,6.0,6.0,5.0,1.0,1.0,6.0,1.0,,5.0,1.0,1.0,5.0,5.0,4.0,5.0,5.0,4.0,5.0,1.0,3.0,1.0,1.0,1.0,1.0,5.0,4.0,3.0,1.0,4.0,5.0,1.0,4.0,5.0,5.0,,5.0,5.0,5.0,4.0,1.0,4.0,,2.7,3.666667,3.0,5.0,5.0,3.0,3.0,4.0
107195,658,2020-03-30 12:01:42,EN,51,Female,"College degree, bachelor, master",Up to 12 years of school,Full time employed,United States,no,Washington,Married/cohabiting,0.0,Yes,Life carries on with minor changes,1.0,0.0,,Program C,No,3.0,2.0,3.0,4.0,3.0,1.0,4.0,4.0,4.0,1.0,2.0,1.0,3.0,6.0,8.0,2.0,7.0,6.0,6.0,7.0,5.0,6.0,6.0,6.0,6.0,6.0,0.0,5.0,5.0,6.0,1.0,3.0,5.0,6.0,5.0,4.0,2.0,3.0,5.0,5.0,4.0,5.0,3.0,4.0,5.0,4.0,3.0,4.0,4.0,1.0,2.0,4.0,5.0,5.0,1.0,1.0,2.0,6.0,1.0,99.0,99.0,99.0,1.0,3.0,4.0,2.0,3.0,1.0,3.0,3.0,5.0,4.0,,6.0,6.0,6.0,6.0,6.0,6.0,6.0,6.0,6.0,6.0,4.0,4.0,4.0,4.0,4.0,5.0,4.0,3.0,4.0,4.0,5.0,5.0,3.0,5.0,3.0,4.0,Getting outside every day for a walk,4.0,5.0,5.0,4.0,5.0,2.0,,2.3,2.0,4.666667,2.333333,4.666667,4.333333,4.0,6.0
107240,1895,2020-03-30 12:18:11,ZH-T,35,Male,PhD/Doctorate,Some College or equivalent,Full time employed,United States,yes,"Houston, TX",Married/cohabiting,0.0,No,Life carries on with minor changes,0.0,0.0,,Program D,,1.0,1.0,2.0,4.0,4.0,1.0,4.0,4.0,1.0,1.0,1.0,1.0,2.0,4.0,8.0,9.0,9.0,8.0,9.0,1.0,10.0,3.0,4.0,5.0,6.0,6.0,3.0,5.0,2.0,4.0,5.0,5.0,5.0,1.0,4.0,5.0,5.0,6.0,1.0,4.0,5.0,5.0,3.0,6.0,6.0,5.0,2.0,6.0,2.0,2.0,99.0,5.0,3.0,5.0,1.0,4.0,99.0,6.0,6.0,6.0,6.0,6.0,2.0,5.0,2.0,3.0,4.0,6.0,6.0,6.0,6.0,2.0,,6.0,5.0,6.0,6.0,6.0,6.0,6.0,6.0,6.0,6.0,5.0,5.0,6.0,5.0,6.0,5.0,4.0,6.0,6.0,5.0,5.0,5.0,6.0,6.0,5.0,5.0,,4.0,5.0,4.0,5.0,5.0,4.0,,1.5,1.333333,2.333333,5.666667,4.666667,5.333333,5.333333,5.9
107243,593,2020-03-30 11:56:22,EN,22,Female,"Some College, short continuing education or equivalent",Up to 12 years of school,Student,United States,no,TX,Single,0.0,Yes,Isolated,1.0,0.0,Program A,,Yes,4.0,3.0,4.0,3.0,3.0,3.0,3.0,3.0,3.0,4.0,4.0,4.0,4.0,4.0,6.0,3.0,4.0,4.0,4.0,6.0,4.0,3.0,6.0,5.0,5.0,6.0,2.0,4.0,5.0,5.0,3.0,2.0,1.0,4.0,6.0,2.0,4.0,3.0,5.0,3.0,5.0,4.0,3.0,5.0,5.0,3.0,3.0,4.0,5.0,5.0,99.0,6.0,4.0,5.0,6.0,4.0,99.0,5.0,4.0,5.0,5.0,4.0,6.0,6.0,5.0,5.0,4.0,2.0,5.0,4.0,6.0,3.0,,5.0,5.0,5.0,5.0,4.0,4.0,5.0,4.0,5.0,6.0,5.0,3.0,6.0,4.0,6.0,5.0,6.0,5.0,5.0,6.0,5.0,4.0,6.0,5.0,5.0,3.0,,5.0,4.0,3.0,2.0,5.0,3.0,,3.3,4.0,5.0,3.0,4.0,4.666667,3.666667,4.8
107244,712,2020-03-30 11:58:18,ZH-T,34,Female,PhD/Doctorate,PhD/Doctorate,Student,United States,yes,Minneapolis/Minnesota,Single,0.0,No,Life carries on with minor changes,0.0,0.0,Program B,,No,5.0,3.0,4.0,3.0,2.0,5.0,2.0,2.0,5.0,4.0,2.0,1.0,5.0,5.0,8.0,5.0,5.0,5.0,5.0,,5.0,4.0,4.0,4.0,6.0,6.0,4.0,6.0,6.0,6.0,3.0,6.0,6.0,5.0,5.0,3.0,5.0,5.0,3.0,5.0,6.0,4.0,4.0,6.0,6.0,3.0,5.0,5.0,6.0,5.0,99.0,6.0,5.0,6.0,5.0,6.0,99.0,6.0,5.0,6.0,99.0,6.0,5.0,5.0,6.0,4.0,6.0,6.0,6.0,5.0,5.0,6.0,,4.0,4.0,4.0,4.0,4.0,,4.0,4.0,4.0,4.0,4.0,3.0,5.0,3.0,6.0,4.0,4.0,4.0,5.0,6.0,5.0,5.0,5.0,6.0,3.0,5.0,,5.0,5.0,5.0,5.0,5.0,5.0,"<U+76EE><U+524D><U+5728><U+7F8E><U+570B><U+6E96><U+5099><U+8077><U+6DAF><U+767C><U+5C55><U+968E><U+6BB5>,<U+56E0><U+70BA><U+75AB><U+60C5><U+5F71><U+97FF>,<U+5C0D><U+65BC><U+672A><U+4F86><U+5145><U+6EFF><U+4E0D><U+78BA><U+5B9A><U+6027>(<U+4F8B><U+5982><U+627E><U+6D77><U+5916><U+5DE5><U+4F5C><U+6642><U+6703><U+958B><U+59CB><U+8003><U+91CF><U+5230><U+516C><U+5171><U+91AB><U+7642><U+885B><U+751F><U+7684><U+61C9><U+8B8A><U+80FD><U+529B><U+4EE5><U+53CA><U+8DE8><U+570B><U+7814><U+7A76><U+5834><U+57DF><U+5F88><U+53EF><U+80FD><U+56E0><U+70BA><U+75BE><U+75C5><U+5927><U+6D41><U+884C><U+5F71><U+97FF><U+570B><U+969B><U+98DB><U+884C><U+7B49>)<U+800C><U+611F><U+5230><U+7126><U+616E>",4.1,2.666667,4.666667,4.666667,5.0,5.0,3.333333,4.0
107276,474,2020-03-30 11:51:39,EN,20,Other/would rather not say,"Some College, short continuing education or equivalent",College degree,Part time employed,United States,no,Maryland,Single,0.0,Yes,Isolated,2.0,0.0,,Program D,No,4.0,5.0,5.0,2.0,2.0,5.0,2.0,2.0,3.0,5.0,4.0,3.0,5.0,6.0,7.0,6.0,1.0,4.0,4.0,7.0,4.0,5.0,6.0,6.0,6.0,6.0,3.0,4.0,4.0,6.0,2.0,4.0,4.0,6.0,6.0,2.0,4.0,2.0,4.0,4.0,6.0,6.0,3.0,4.0,5.0,5.0,4.0,4.0,3.0,5.0,99.0,5.0,4.0,5.0,99.0,5.0,99.0,5.0,4.0,6.0,6.0,6.0,5.0,6.0,6.0,6.0,6.0,6.0,5.0,5.0,6.0,4.0,,5.0,5.0,5.0,5.0,5.0,5.0,5.0,6.0,5.0,5.0,5.0,6.0,6.0,5.0,5.0,6.0,6.0,6.0,6.0,5.0,5.0,5.0,4.0,5.0,4.0,5.0,,5.0,6.0,6.0,6.0,6.0,3.0,,4.3,4.0,5.666667,3.0,5.333333,4.333333,4.0,5.1
107289,1254,2020-03-31 12:03:53,ZH-T,35,Male,PhD/Doctorate,College degree,Student,United States,yes,Davis,Divorced/widowed,0.0,No,Isolated,3.0,0.0,,Program C,No,2.0,4.0,2.0,2.0,2.0,2.0,2.0,2.0,4.0,4.0,2.0,2.0,4.0,3.0,8.0,5.0,3.0,8.0,8.0,,4.0,4.0,4.0,4.0,5.0,5.0,2.0,5.0,5.0,5.0,4.0,4.0,4.0,5.0,4.0,3.0,4.0,3.0,3.0,5.0,6.0,4.0,2.0,4.0,4.0,5.0,6.0,5.0,4.0,5.0,99.0,6.0,3.0,6.0,99.0,5.0,99.0,6.0,5.0,5.0,3.0,5.0,5.0,4.0,5.0,3.0,2.0,5.0,5.0,4.0,6.0,6.0,,,,,,,,,,,,,,,,,,,,,,,,,,,,,,,,,,,,3.4,2.666667,4.333333,3.666667,5.0,4.333333,3.666667,
107294,799,2020-03-31 11:56:09,EN,34,Female,"Some College, short continuing education or equivalent",College degree,Part time employed,United States,no,WA,Married/cohabiting,0.0,Yes,Isolated,1.0,0.0,,Program D,No,2.0,3.0,3.0,5.0,3.0,2.0,5.0,3.0,2.0,2.0,1.0,3.0,3.0,6.0,9.0,2.0,2.0,4.0,4.0,8.0,4.0,3.0,5.0,5.0,6.0,6.0,3.0,5.0,6.0,6.0,2.0,3.0,3.0,4.0,6.0,3.0,5.0,5.0,2.0,6.0,4.0,3.0,3.0,5.0,5.0,4.0,6.0,4.0,99.0,99.0,99.0,99.0,5.0,5.0,5.0,2.0,99.0,4.0,3.0,4.0,4.0,5.0,99.0,2.0,5.0,3.0,5.0,99.0,99.0,2.0,4.0,99.0,,6.0,6.0,6.0,5.0,6.0,5.0,6.0,6.0,5.0,6.0,4.0,2.0,6.0,1.0,3.0,5.0,5.0,5.0,6.0,4.0,4.0,4.0,2.0,4.0,6.0,4.0,,4.0,6.0,5.0,5.0,5.0,4.0,,2.2,2.333333,4.666667,5.0,4.333333,4.666667,3.0,5.7
107298,166,2020-03-31 11:44:40,EN,21,Female,"Some College, short continuing education or equivalent",College degree,Student,United States,no,Pennsylvania,Single,0.0,Yes,Isolated,3.0,0.0,,,,,,,,,,,,,,,,,,,,,,,,,,,,,,,,,,,,,,,,,,,,,,,,,,,,,,,,,,,,,,,,,,,,,,,,,,,,,,,,,,,,,,,,,,,,,,,,,,,,,,,,,,,,,,,,,,,,,,
107300,192,2020-04-01 11:45:29,LT,33,Male,"College degree, bachelor, master",Some College or equivalent,Full time employed,United States,yes,California,Single,0.0,No,Life carries on with minor changes,0.0,0.0,Program A,,,,,,,,,,,,,,,,,,,,,,,,,,,,,,,,,,,,,,,,,,,,,,,,,,,,,,,,,,,,,,,,,,,,,,,,,,,,,,,,,,,,,,,,,,,,,,,,,,,,,,,,,,,,,,,,,,,,,
107318,607,2020-03-30 11:49:56,EN,54,Female,PhD/Doctorate,College degree,Full time employed,United States,no,SC,Divorced/widowed,2.0,No,Isolated,2.0,0.0,,Program C,Yes,2.0,2.0,3.0,4.0,3.0,2.0,4.0,4.0,2.0,2.0,2.0,2.0,3.0,5.0,6.0,,5.0,5.0,6.0,5.0,,6.0,6.0,6.0,6.0,6.0,0.0,6.0,6.0,5.0,1.0,2.0,4.0,4.0,5.0,4.0,2.0,2.0,5.0,4.0,5.0,1.0,2.0,4.0,5.0,6.0,1.0,5.0,2.0,4.0,1.0,1.0,5.0,5.0,5.0,2.0,99.0,6.0,1.0,6.0,6.0,4.0,2.0,2.0,1.0,,4.0,3.0,2.0,2.0,5.0,1.0,,6.0,6.0,5.0,6.0,6.0,6.0,6.0,5.0,6.0,6.0,2.0,6.0,5.0,4.0,5.0,2.0,1.0,1.0,4.0,5.0,5.0,5.0,5.0,6.0,5.0,3.0,,2.0,2.0,1.0,2.0,5.0,2.0,,2.2,2.333333,4.0,2.0,3.333333,4.666667,5.666667,5.8
107328,527,2020-03-31 11:47:57,EN,49,Female,"College degree, bachelor, master",College degree,Full time employed,United States,no,Michigan,Married/cohabiting,0.0,Yes,Isolated,2.0,0.0,,Program C,No,2.0,2.0,4.0,4.0,3.0,2.0,4.0,4.0,2.0,1.0,2.0,2.0,2.0,6.0,8.0,1.0,8.0,7.0,6.0,8.0,1.0,5.0,5.0,5.0,5.0,5.0,2.0,5.0,5.0,5.0,2.0,3.0,4.0,4.0,4.0,5.0,4.0,2.0,4.0,4.0,4.0,3.0,4.0,4.0,5.0,4.0,4.0,5.0,2.0,4.0,99.0,99.0,4.0,3.0,99.0,2.0,99.0,5.0,6.0,4.0,5.0,5.0,5.0,3.0,3.0,3.0,3.0,4.0,4.0,2.0,5.0,5.0,,,,,,,,,,,,,,,,,,,,,,,,,,,,,,,,,,,,2.2,2.0,3.333333,3.0,3.666667,4.0,4.0,
107333,1050,2020-03-30 11:56:22,EN,23,Female,"Some College, short continuing education or equivalent",College degree,Student,United States,no,Massachusetts,Married/cohabiting,0.0,Yes,Isolated,2.0,0.0,Program B,,No,5.0,5.0,5.0,3.0,2.0,4.0,2.0,2.0,3.0,4.0,2.0,3.0,5.0,4.0,7.0,3.0,6.0,5.0,4.0,8.0,4.0,5.0,6.0,6.0,5.0,5.0,2.0,3.0,3.0,3.0,4.0,2.0,4.0,5.0,5.0,2.0,5.0,4.0,4.0,5.0,6.0,6.0,3.0,3.0,5.0,5.0,3.0,5.0,6.0,6.0,6.0,6.0,4.0,6.0,4.0,5.0,99.0,5.0,5.0,6.0,6.0,4.0,6.0,4.0,4.0,4.0,6.0,4.0,4.0,3.0,6.0,6.0,,6.0,5.0,5.0,5.0,5.0,5.0,6.0,6.0,5.0,6.0,3.0,5.0,4.0,2.0,3.0,5.0,1.0,1.0,5.0,3.0,3.0,4.0,4.0,6.0,3.0,3.0,,2.0,3.0,4.0,3.0,5.0,4.0,"I dont know when Ill be returning to work, I dont know if/when/or how much Ill be paid, and I cant file for unemployment, so I have a major, uncertain gap in my income. I also dont believe my classes have been effectively converted online, so the education Im going broke for is pretty bullshit.",4.1,3.333333,5.0,4.0,5.666667,4.0,4.666667,5.4
107334,711,2020-03-30 11:50:42,EN,25,Female,"College degree, bachelor, master",Up to 12 years of school,Full time employed,United States,yes,Florida,Married/cohabiting,0.0,Yes,Life carries on with minor changes,2.0,0.0,,Program D,No,5.0,4.0,5.0,2.0,2.0,4.0,2.0,3.0,5.0,2.0,4.0,4.0,5.0,2.0,5.0,1.0,4.0,4.0,3.0,5.0,3.0,4.0,6.0,6.0,5.0,6.0,2.0,5.0,3.0,3.0,2.0,1.0,2.0,6.0,6.0,3.0,5.0,4.0,2.0,6.0,6.0,5.0,5.0,4.0,5.0,4.0,5.0,4.0,99.0,4.0,99.0,4.0,4.0,6.0,99.0,6.0,99.0,5.0,5.0,1.0,1.0,5.0,6.0,2.0,2.0,6.0,4.0,5.0,1.0,2.0,6.0,99.0,,6.0,3.0,4.0,5.0,6.0,5.0,6.0,6.0,3.0,6.0,2.0,3.0,1.0,2.0,1.0,1.0,1.0,1.0,6.0,2.0,4.0,2.0,1.0,1.0,1.0,2.0,,5.0,5.0,1.0,2.0,2.0,1.0,The fact I could be working from home yet theyve just brought all the workers who work on the road into the office making everything closer,4.0,4.333333,5.333333,4.666667,5.666667,3.666667,3.333333,5.0
107336,1146,2020-03-30 11:57:46,EN,26,Female,"Some College, short continuing education or equivalent",Up to 12 years of school,Student,United States,no,Tx,Married/cohabiting,0.0,Yes,Life carries on with minor changes,1.0,0.0,Program A,,No,1.0,2.0,2.0,4.0,4.0,1.0,4.0,4.0,3.0,1.0,1.0,1.0,1.0,6.0,10.0,5.0,5.0,5.0,4.0,10.0,3.0,2.0,5.0,2.0,5.0,5.0,3.0,5.0,5.0,6.0,1.0,1.0,4.0,4.0,3.0,3.0,2.0,1.0,5.0,2.0,2.0,2.0,4.0,4.0,4.0,5.0,5.0,5.0,2.0,2.0,99.0,2.0,2.0,2.0,99.0,2.0,99.0,5.0,2.0,5.0,4.0,5.0,2.0,2.0,2.0,2.0,2.0,2.0,2.0,2.0,5.0,2.0,,5.0,5.0,5.0,5.0,5.0,5.0,5.0,5.0,3.0,5.0,4.0,2.0,5.0,2.0,5.0,5.0,6.0,6.0,5.0,2.0,2.0,4.0,2.0,5.0,1.0,4.0,,5.0,2.0,5.0,5.0,5.0,2.0,,1.8,1.0,3.666667,1.666667,2.0,3.666667,4.0,4.8
107341,485,2020-03-30 11:46:25,DA,23,Male,"College degree, bachelor, master",College degree,Student,United States,no,,Single,0.0,Yes,Isolated,2.0,0.0,,Program D,No,2.0,2.0,2.0,5.0,3.0,1.0,4.0,5.0,2.0,1.0,3.0,1.0,4.0,7.0,10.0,5.0,8.0,7.0,9.0,5.0,9.0,2.0,6.0,4.0,6.0,6.0,5.0,5.0,6.0,6.0,2.0,5.0,2.0,3.0,1.0,6.0,4.0,5.0,4.0,5.0,5.0,4.0,1.0,4.0,5.0,6.0,1.0,6.0,5.0,4.0,99.0,5.0,2.0,5.0,99.0,5.0,99.0,6.0,1.0,5.0,6.0,5.0,2.0,1.0,1.0,5.0,5.0,2.0,2.0,1.0,5.0,5.0,,6.0,6.0,5.0,6.0,6.0,6.0,6.0,6.0,4.0,6.0,6.0,5.0,6.0,3.0,6.0,1.0,5.0,5.0,3.0,4.0,3.0,4.0,6.0,4.0,1.0,6.0,,6.0,1.0,5.0,2.0,1.0,2.0,,1.7,2.666667,1.666667,4.0,4.666667,5.0,6.0,5.7
107352,733,2020-03-30 11:49:23,ZH-T,37,Female,PhD/Doctorate,College degree,Student,United States,yes,,Married/cohabiting,2.0,Yes,Life carries on with minor changes,,,Program B,,Yes,2.0,2.0,2.0,4.0,4.0,2.0,4.0,4.0,2.0,2.0,1.0,2.0,3.0,4.0,9.0,2.0,6.0,2.0,2.0,,3.0,4.0,4.0,4.0,6.0,5.0,3.0,5.0,5.0,6.0,6.0,3.0,6.0,3.0,4.0,4.0,6.0,6.0,1.0,4.0,5.0,4.0,2.0,5.0,5.0,4.0,4.0,5.0,6.0,6.0,4.0,6.0,3.0,4.0,3.0,1.0,4.0,5.0,6.0,4.0,3.0,1.0,3.0,4.0,4.0,1.0,3.0,4.0,6.0,4.0,6.0,4.0,,6.0,6.0,6.0,6.0,6.0,6.0,6.0,6.0,6.0,6.0,2.0,4.0,,4.0,4.0,4.0,3.0,1.0,4.0,4.0,4.0,4.0,4.0,4.0,3.0,4.0,,6.0,6.0,6.0,6.0,6.0,1.0,,2.0,2.0,3.333333,6.0,4.333333,5.0,4.0,6.0
107400,837,2020-03-30 11:47:36,ZH-T,33,Female,PhD/Doctorate,Some College or equivalent,Full time employed,United States,yes,Pennsylvania,Married/cohabiting,0.0,Yes,Life carries on with minor changes,1.0,0.0,Program A,,,3.0,2.0,3.0,3.0,3.0,2.0,3.0,3.0,2.0,2.0,1.0,2.0,2.0,6.0,8.0,7.0,6.0,7.0,4.0,,5.0,5.0,5.0,4.0,5.0,4.0,3.0,3.0,5.0,5.0,2.0,4.0,5.0,6.0,5.0,4.0,2.0,1.0,6.0,4.0,4.0,5.0,2.0,4.0,2.0,3.0,4.0,5.0,4.0,3.0,4.0,5.0,6.0,1.0,1.0,4.0,4.0,99.0,6.0,4.0,4.0,5.0,3.0,3.0,5.0,5.0,3.0,4.0,6.0,5.0,5.0,5.0,,5.0,5.0,4.0,6.0,5.0,5.0,5.0,6.0,2.0,5.0,4.0,3.0,3.0,3.0,3.0,4.0,3.0,3.0,2.0,3.0,3.0,4.0,2.0,2.0,3.0,4.0,,5.0,4.0,5.0,3.0,3.0,3.0,,2.6,1.666667,4.666667,1.333333,4.333333,3.666667,3.666667,4.8
107404,700,2020-03-30 11:44:53,EN,55,Male,PhD/Doctorate,PhD/Doctorate,Full time employed,United States,no,MI,Married/cohabiting,1.0,Yes,Life carries on with minor changes,1.0,1.0,Program B,,No,4.0,2.0,4.0,4.0,4.0,3.0,4.0,3.0,2.0,3.0,3.0,4.0,4.0,7.0,10.0,5.0,6.0,7.0,7.0,8.0,5.0,5.0,5.0,5.0,5.0,5.0,2.0,5.0,5.0,5.0,3.0,4.0,3.0,3.0,4.0,5.0,5.0,6.0,2.0,5.0,6.0,2.0,3.0,5.0,5.0,4.0,3.0,5.0,2.0,3.0,6.0,99.0,3.0,6.0,1.0,4.0,4.0,5.0,4.0,4.0,5.0,5.0,6.0,6.0,2.0,4.0,5.0,4.0,3.0,3.0,6.0,5.0,,5.0,5.0,5.0,5.0,5.0,5.0,5.0,5.0,5.0,5.0,5.0,5.0,5.0,5.0,5.0,5.0,3.0,3.0,5.0,5.0,5.0,5.0,5.0,6.0,1.0,5.0,,5.0,5.0,5.0,3.0,5.0,4.0,,2.7,3.666667,3.0,5.333333,4.333333,4.666667,4.333333,5.0
107409,824,2020-03-30 11:46:32,EN,32,Female,PhD/Doctorate,College degree,Not employed,United States,no,Texas,Married/cohabiting,1.0,Yes,Isolated,1.0,1.0,,Program C,Yes,2.0,3.0,5.0,5.0,3.0,3.0,5.0,3.0,3.0,2.0,4.0,3.0,5.0,3.0,6.0,2.0,3.0,4.0,7.0,8.0,3.0,6.0,6.0,4.0,6.0,6.0,2.0,6.0,6.0,6.0,5.0,3.0,6.0,5.0,5.0,4.0,5.0,5.0,4.0,4.0,5.0,3.0,2.0,5.0,5.0,4.0,3.0,5.0,4.0,4.0,99.0,4.0,6.0,6.0,99.0,2.0,4.0,6.0,4.0,6.0,6.0,6.0,99.0,6.0,4.0,5.0,6.0,99.0,5.0,2.0,6.0,4.0,Pregnant (first trimester) and dont know the effects on fetus,6.0,5.0,6.0,6.0,6.0,5.0,6.0,6.0,5.0,6.0,1.0,6.0,5.0,2.0,5.0,4.0,1.0,1.0,5.0,4.0,6.0,5.0,5.0,4.0,2.0,2.0,,6.0,6.0,2.0,5.0,5.0,2.0,I would feel much more reassured that we will get through this if we had a competent and trustworthy president!,2.6,4.0,4.333333,4.333333,4.0,5.0,4.333333,5.7
107418,548,2020-03-31 11:41:29,EN,21,Female,"Some College, short continuing education or equivalent",College degree,Student,United States,no,GA,Single,0.0,Yes,Isolated,2.0,0.0,Program A,,No,4.0,3.0,5.0,3.0,5.0,3.0,2.0,2.0,3.0,5.0,5.0,4.0,5.0,8.0,9.0,3.0,2.0,3.0,7.0,7.0,1.0,4.0,6.0,6.0,6.0,6.0,2.0,5.0,4.0,5.0,3.0,6.0,5.0,6.0,6.0,2.0,3.0,1.0,5.0,4.0,5.0,3.0,3.0,5.0,6.0,3.0,5.0,4.0,3.0,6.0,99.0,6.0,5.0,5.0,99.0,6.0,99.0,3.0,4.0,6.0,6.0,6.0,6.0,6.0,4.0,6.0,6.0,5.0,3.0,2.0,5.0,4.0,,,,,,,,,,,,,,,,,,,,,,,,,,,,,,,,,,,,3.5,4.666667,5.666667,2.0,4.0,5.0,3.0,
107419,35110,2020-03-31 21:20:14,EN,54,Female,"College degree, bachelor, master",College degree,Full time employed,United States,no,Pennsylvania,Married/cohabiting,1.0,Yes,Isolated,3.0,0.0,,,,,,,,,,,,,,,,,,,,,,,,,,,,,,,,,,,,,,,,,,,,,,,,,,,,,,,,,,,,,,,,,,,,,,,,,,,,,,,,,,,,,,,,,,,,,,,,,,,,,,,,,,,,,,,,,,,,,,
107439,613,2020-03-30 11:40:49,EN,39,Female,"Some College, short continuing education or equivalent",College degree,Full time employed,United States,no,Michigan,Divorced/widowed,2.0,Yes,Isolated,0.0,2.0,Program A,,No,3.0,2.0,3.0,5.0,4.0,2.0,4.0,4.0,1.0,2.0,2.0,2.0,4.0,5.0,6.0,4.0,7.0,7.0,7.0,7.0,4.0,3.0,6.0,5.0,6.0,5.0,2.0,5.0,1.0,6.0,1.0,2.0,5.0,5.0,4.0,5.0,5.0,3.0,5.0,4.0,5.0,5.0,2.0,5.0,6.0,2.0,4.0,5.0,2.0,2.0,2.0,2.0,2.0,4.0,1.0,99.0,2.0,5.0,2.0,6.0,5.0,4.0,2.0,2.0,5.0,5.0,2.0,2.0,4.0,2.0,5.0,2.0,,6.0,5.0,4.0,5.0,5.0,5.0,6.0,6.0,5.0,5.0,2.0,2.0,6.0,2.0,6.0,6.0,1.0,1.0,5.0,3.0,5.0,5.0,4.0,5.0,1.0,2.0,,5.0,5.0,2.0,4.0,6.0,4.0,,2.0,2.666667,3.666667,3.333333,4.666667,5.333333,3.333333,5.2
107464,749,2020-03-31 11:40:41,EN,23,Male,"Some College, short continuing education or equivalent",College degree,Full time employed,United States,no,Florida,Single,0.0,Yes,Life carries on with minor changes,0.0,0.0,,Program C,Yes,2.0,2.0,3.0,3.0,4.0,2.0,4.0,5.0,2.0,3.0,5.0,4.0,5.0,3.0,7.0,0.0,,6.0,2.0,,2.0,2.0,6.0,4.0,1.0,6.0,0.0,6.0,1.0,4.0,2.0,1.0,5.0,4.0,5.0,3.0,5.0,6.0,3.0,5.0,6.0,4.0,4.0,3.0,4.0,3.0,4.0,5.0,6.0,3.0,99.0,6.0,5.0,5.0,99.0,6.0,1.0,6.0,6.0,5.0,6.0,3.0,99.0,6.0,6.0,5.0,6.0,6.0,3.0,1.0,3.0,6.0,"Fuck Xi, Fuck the CCP, and Fuck intentional misinformation, the US is just as bad about info control!",5.0,4.0,2.0,2.0,2.0,6.0,2.0,6.0,5.0,3.0,1.0,5.0,6.0,6.0,4.0,2.0,2.0,2.0,5.0,5.0,2.0,1.0,5.0,6.0,1.0,4.0,,5.0,5.0,6.0,2.0,2.0,1.0,,2.2,4.666667,4.333333,5.0,5.0,3.333333,3.666667,3.7
107480,284,2020-03-31 11:31:41,EN,80,Male,"College degree, bachelor, master",Up to 12 years of school,Retired,United States,no,Michigan,Single,1.0,Not sure,Isolated,2.0,0.0,,,,,,,,,,,,,,,,,,,,,,,,,,,,,,,,,,,,,,,,,,,,,,,,,,,,,,,,,,,,,,,,,,,,,,,,,,,,,,,,,,,,,,,,,,,,,,,,,,,,,,,,,,,,,,,,,,,,,,
107491,1492,2020-03-30 11:50:36,EN,51,Female,PhD/Doctorate,Up to 12 years of school,Full time employed,United States,no,Michigan,Married/cohabiting,2.0,Yes,Isolated,1.0,0.0,,Program C,No,5.0,3.0,4.0,3.0,3.0,2.0,4.0,4.0,2.0,2.0,2.0,4.0,4.0,4.0,8.0,3.0,8.0,6.0,8.0,3.0,0.0,4.0,6.0,6.0,6.0,6.0,0.0,6.0,6.0,6.0,1.0,1.0,1.0,3.0,3.0,5.0,5.0,5.0,4.0,5.0,5.0,3.0,1.0,4.0,5.0,5.0,2.0,6.0,2.0,5.0,2.0,99.0,5.0,4.0,6.0,5.0,99.0,4.0,5.0,6.0,6.0,5.0,5.0,2.0,99.0,6.0,5.0,2.0,2.0,2.0,5.0,2.0,How we will mourn a friend who passed away. Can we have a funeral?,5.0,5.0,5.0,5.0,5.0,4.0,5.0,5.0,5.0,5.0,1.0,2.0,5.0,1.0,5.0,4.0,1.0,4.0,4.0,4.0,2.0,1.0,3.0,4.0,5.0,1.0,,1.0,4.0,2.0,2.0,3.0,1.0,,2.8,3.333333,2.666667,4.333333,4.333333,5.0,5.333333,4.9
107520,691,2020-03-30 11:35:11,ZH-T,36,Male,PhD/Doctorate,Some College or equivalent,Full time employed,United States,yes,Illinois,Married/cohabiting,3.0,No,Life carries on as usual,,,Program B,,No,1.0,1.0,1.0,5.0,4.0,2.0,5.0,4.0,1.0,1.0,1.0,1.0,1.0,8.0,9.0,10.0,8.0,9.0,7.0,0.0,8.0,2.0,2.0,2.0,3.0,4.0,5.0,6.0,6.0,6.0,1.0,5.0,6.0,3.0,4.0,5.0,4.0,4.0,4.0,6.0,4.0,6.0,3.0,6.0,6.0,4.0,2.0,6.0,1.0,2.0,1.0,4.0,1.0,1.0,1.0,1.0,1.0,4.0,3.0,4.0,1.0,3.0,1.0,1.0,4.0,1.0,3.0,1.0,1.0,2.0,4.0,1.0,,4.0,5.0,5.0,6.0,5.0,5.0,5.0,5.0,6.0,5.0,3.0,3.0,3.0,3.0,3.0,3.0,3.0,3.0,3.0,3.0,3.0,3.0,3.0,3.0,3.0,3.0,,3.0,3.0,4.0,3.0,4.0,3.0,,1.3,1.0,3.0,3.666667,5.333333,5.333333,5.0,5.1
107522,1848,2020-03-30 11:54:24,EN,25,Female,"Some College, short continuing education or equivalent",College degree,Student,United States,no,Texas,Single,0.0,No,Isolated,15.0,0.0,Program A,,No,4.0,5.0,5.0,3.0,2.0,4.0,3.0,2.0,5.0,4.0,5.0,5.0,5.0,5.0,7.0,5.0,5.0,5.0,5.0,5.0,4.0,6.0,6.0,6.0,6.0,6.0,0.0,6.0,6.0,6.0,6.0,5.0,6.0,6.0,5.0,5.0,5.0,4.0,4.0,5.0,5.0,6.0,4.0,4.0,6.0,6.0,1.0,6.0,6.0,6.0,99.0,6.0,6.0,6.0,99.0,99.0,99.0,6.0,6.0,6.0,6.0,6.0,6.0,6.0,99.0,6.0,6.0,6.0,6.0,99.0,6.0,6.0,,5.0,5.0,2.0,5.0,5.0,5.0,6.0,5.0,6.0,5.0,4.0,6.0,6.0,6.0,6.0,5.0,2.0,4.0,5.0,3.0,4.0,2.0,3.0,4.0,2.0,4.0,,4.0,3.0,3.0,4.0,5.0,3.0,My future career as all classes are online and i struggle with online classes. Unemployment is terrifying,4.1,5.0,4.333333,4.0,5.333333,4.333333,6.0,4.9
107524,735,2020-03-30 11:35:46,EN,26,Female,"Some College, short continuing education or equivalent",Up to 9 years of school,Self-employed,United States,no,Indiana,Married/cohabiting,0.0,Yes,Life carries on with minor changes,1.0,0.0,,Program D,No,4.0,3.0,5.0,3.0,2.0,5.0,3.0,2.0,3.0,4.0,4.0,3.0,4.0,4.0,10.0,0.0,0.0,1.0,1.0,3.0,0.0,6.0,6.0,6.0,6.0,6.0,0.0,6.0,6.0,6.0,2.0,4.0,2.0,5.0,5.0,1.0,3.0,1.0,5.0,6.0,6.0,5.0,5.0,5.0,6.0,2.0,2.0,3.0,99.0,4.0,99.0,99.0,6.0,3.0,99.0,4.0,99.0,2.0,5.0,5.0,6.0,6.0,99.0,99.0,4.0,6.0,3.0,2.0,6.0,6.0,5.0,99.0,,5.0,6.0,6.0,4.0,6.0,5.0,6.0,6.0,6.0,6.0,4.0,2.0,4.0,2.0,6.0,2.0,4.0,6.0,5.0,5.0,5.0,5.0,5.0,5.0,1.0,5.0,,1.0,2.0,2.0,5.0,6.0,4.0,,3.8,3.666667,5.333333,2.0,5.666667,4.333333,3.333333,5.6
107549,850,2020-03-30 11:35:58,EN,28,Female,"Some College, short continuing education or equivalent",Up to 12 years of school,Full time employed,United States,no,Texas,Married/cohabiting,0.0,Yes,Life carries on with minor changes,1.0,0.0,,Program C,No,2.0,2.0,4.0,4.0,3.0,2.0,3.0,4.0,4.0,2.0,2.0,4.0,4.0,7.0,9.0,7.0,8.0,8.0,6.0,9.0,1.0,5.0,5.0,5.0,5.0,5.0,4.0,5.0,5.0,5.0,2.0,3.0,5.0,5.0,2.0,4.0,5.0,4.0,4.0,3.0,5.0,2.0,2.0,5.0,5.0,5.0,3.0,5.0,6.0,5.0,99.0,6.0,4.0,4.0,6.0,2.0,99.0,5.0,2.0,3.0,1.0,5.0,2.0,5.0,2.0,2.0,5.0,99.0,2.0,2.0,6.0,5.0,,6.0,6.0,6.0,6.0,6.0,6.0,6.0,6.0,6.0,6.0,5.0,6.0,6.0,5.0,5.0,1.0,2.0,2.0,4.0,5.0,4.0,5.0,5.0,6.0,6.0,4.0,,5.0,4.0,2.0,5.0,4.0,2.0,,2.6,3.333333,3.333333,4.0,3.333333,5.0,4.666667,6.0
107566,590,2020-03-30 11:30:14,EN,25,Female,"College degree, bachelor, master",College degree,Full time employed,United States,yes,New Hampshire,Single,0.0,Yes,Life carries on with minor changes,,,,Program D,No,5.0,5.0,5.0,3.0,3.0,3.0,3.0,3.0,3.0,4.0,3.0,3.0,3.0,6.0,8.0,0.0,5.0,0.0,5.0,0.0,0.0,6.0,6.0,5.0,5.0,5.0,0.0,2.0,4.0,4.0,2.0,3.0,2.0,4.0,4.0,3.0,2.0,1.0,5.0,3.0,3.0,4.0,2.0,4.0,5.0,4.0,5.0,5.0,1.0,5.0,99.0,1.0,5.0,5.0,99.0,99.0,99.0,3.0,4.0,6.0,6.0,5.0,99.0,99.0,4.0,5.0,99.0,6.0,6.0,5.0,6.0,3.0,,6.0,5.0,5.0,6.0,6.0,5.0,5.0,6.0,4.0,6.0,1.0,5.0,5.0,4.0,3.0,1.0,1.0,1.0,5.0,4.0,2.0,3.0,4.0,5.0,1.0,1.0,,1.0,1.0,1.0,1.0,1.0,1.0,,3.7,3.0,4.0,1.666667,3.333333,4.666667,3.666667,5.4
107584,2720,2020-03-30 12:04:19,EN,47,Female,"College degree, bachelor, master",Up to 12 years of school,Full time employed,United States,no,California,Married/cohabiting,1.0,Yes,Life carries on with minor changes,1.0,1.0,Program A,,No,3.0,3.0,4.0,3.0,3.0,4.0,2.0,4.0,3.0,2.0,4.0,1.0,4.0,6.0,8.0,0.0,3.0,3.0,5.0,8.0,0.0,6.0,6.0,6.0,6.0,6.0,0.0,6.0,4.0,3.0,4.0,2.0,2.0,1.0,1.0,6.0,6.0,6.0,1.0,4.0,4.0,3.0,4.0,4.0,4.0,2.0,4.0,6.0,2.0,4.0,2.0,5.0,2.0,4.0,1.0,99.0,6.0,99.0,5.0,99.0,99.0,5.0,99.0,3.0,3.0,99.0,5.0,2.0,6.0,2.0,5.0,2.0,,6.0,4.0,6.0,5.0,5.0,5.0,5.0,6.0,5.0,6.0,4.0,4.0,6.0,6.0,6.0,6.0,1.0,1.0,6.0,4.0,3.0,4.0,5.0,2.0,4.0,4.0,,6.0,6.0,6.0,4.0,5.0,6.0,,3.1,3.0,1.0,6.0,3.666667,3.666667,3.666667,5.3
107588,690,2020-03-31 11:30:54,EN,21,Other/would rather not say,"Some College, short continuing education or equivalent",College degree,Student,United States,no,VA,Single,1.0,No,Isolated,4.0,0.0,,Program C,Not sure,4.0,4.0,4.0,2.0,2.0,4.0,3.0,3.0,4.0,4.0,2.0,4.0,4.0,4.0,7.0,3.0,0.0,4.0,5.0,7.0,2.0,5.0,5.0,5.0,5.0,5.0,2.0,2.0,4.0,5.0,4.0,3.0,2.0,5.0,4.0,2.0,4.0,5.0,5.0,3.0,6.0,3.0,4.0,3.0,4.0,3.0,3.0,5.0,6.0,5.0,99.0,6.0,5.0,6.0,3.0,6.0,2.0,4.0,3.0,5.0,5.0,5.0,6.0,6.0,4.0,6.0,6.0,5.0,5.0,5.0,5.0,99.0,,,,,,,,,,,,,,,,,,,,,,,,,,,,,,,,,,,,3.8,3.333333,4.666667,3.666667,4.0,3.333333,4.0,
107589,20322,2020-03-30 16:57:31,LT,36,Male,PhD/Doctorate,College degree,Full time employed,United States,no,Michigan,Married/cohabiting,0.0,Yes,Isolated,0.0,0.0,Program A,,No,,,,,,,,,,,,,,,,,,,,,,,,,,,,6.0,4.0,4.0,1.0,5.0,2.0,,,,,,,,,,,,,,,,,,,,,,,,,,,,,,,,,,,,,,,,,,,,,,,,,,,,,,,,,,,,,,,,,,,,,,,,,,,,,,,,,,
107601,2194,2020-03-30 11:54:43,EN,44,Female,PhD/Doctorate,Up to 12 years of school,Full time employed,United States,no,NC,Married/cohabiting,2.0,Yes,Isolated,2.0,1.0,,Program C,No,2.0,2.0,4.0,4.0,4.0,3.0,4.0,4.0,3.0,2.0,3.0,2.0,4.0,7.0,9.0,9.0,9.0,10.0,10.0,10.0,8.0,5.0,6.0,6.0,6.0,6.0,4.0,6.0,6.0,6.0,2.0,4.0,3.0,4.0,2.0,5.0,5.0,4.0,4.0,6.0,5.0,4.0,5.0,5.0,5.0,2.0,3.0,5.0,4.0,4.0,4.0,5.0,2.0,5.0,2.0,4.0,2.0,5.0,4.0,5.0,5.0,6.0,4.0,5.0,3.0,4.0,5.0,2.0,4.0,2.0,4.0,2.0,,6.0,6.0,6.0,6.0,6.0,5.0,6.0,6.0,6.0,6.0,5.0,6.0,6.0,2.0,6.0,4.0,3.0,6.0,6.0,5.0,6.0,6.0,4.0,6.0,3.0,5.0,,5.0,5.0,5.0,5.0,5.0,2.0,Having a strong network of technology literate friends who I can interact with regularly.,2.4,3.0,2.666667,4.0,5.0,4.0,3.666667,5.9
107612,1085,2020-03-30 11:35:36,ZH-T,34,Female,PhD/Doctorate,College degree,Not employed,United States,yes,California,Married/cohabiting,2.0,No,Life carries on with minor changes,,,Program A,,,3.0,2.0,2.0,3.0,2.0,2.0,4.0,3.0,4.0,2.0,2.0,3.0,4.0,6.0,9.0,7.0,6.0,6.0,7.0,1.0,7.0,5.0,5.0,5.0,6.0,6.0,5.0,5.0,6.0,6.0,1.0,5.0,5.0,5.0,5.0,4.0,3.0,4.0,4.0,3.0,5.0,5.0,3.0,4.0,4.0,6.0,4.0,6.0,4.0,99.0,5.0,5.0,5.0,3.0,99.0,1.0,4.0,6.0,4.0,4.0,99.0,4.0,99.0,3.0,4.0,3.0,6.0,6.0,6.0,3.0,5.0,5.0,,6.0,4.0,5.0,6.0,6.0,5.0,6.0,6.0,4.0,6.0,4.0,3.0,3.0,4.0,3.0,3.0,2.0,2.0,3.0,3.0,3.0,3.0,3.0,3.0,3.0,3.0,,3.0,5.0,4.0,2.0,4.0,3.0,,2.7,3.0,4.333333,3.333333,4.333333,4.0,5.0,5.4
107653,680,2020-03-30 11:25:07,EN,25,Female,"College degree, bachelor, master",Some College or equivalent,Full time employed,United States,no,PA,Single,0.0,Yes,Isolated,1.0,0.0,,Program D,No,4.0,3.0,5.0,4.0,3.0,3.0,4.0,4.0,5.0,3.0,1.0,1.0,4.0,7.0,9.0,6.0,8.0,7.0,6.0,8.0,5.0,6.0,6.0,6.0,5.0,5.0,4.0,5.0,4.0,4.0,4.0,4.0,4.0,5.0,6.0,2.0,6.0,6.0,1.0,5.0,3.0,4.0,5.0,6.0,5.0,6.0,2.0,6.0,1.0,6.0,99.0,2.0,1.0,6.0,99.0,2.0,99.0,2.0,5.0,6.0,6.0,99.0,2.0,5.0,3.0,99.0,6.0,3.0,5.0,2.0,5.0,1.0,,6.0,6.0,6.0,6.0,6.0,5.0,6.0,6.0,6.0,6.0,4.0,4.0,2.0,5.0,2.0,2.0,2.0,2.0,6.0,2.0,3.0,3.0,4.0,5.0,2.0,4.0,,5.0,5.0,3.0,6.0,6.0,2.0,,3.2,2.0,5.333333,6.0,4.0,4.333333,5.666667,5.9
107672,1100,2020-03-30 11:30:29,EN,52,Female,"College degree, bachelor, master",College degree,Full time employed,United States,no,Washington,Divorced/widowed,0.0,Yes,Isolated,0.0,0.0,Program A,,No,2.0,4.0,4.0,3.0,3.0,4.0,3.0,2.0,3.0,3.0,3.0,3.0,3.0,5.0,9.0,4.0,3.0,4.0,4.0,6.0,1.0,4.0,5.0,4.0,5.0,5.0,3.0,5.0,5.0,5.0,4.0,4.0,3.0,4.0,3.0,5.0,5.0,4.0,3.0,4.0,5.0,5.0,3.0,5.0,4.0,4.0,4.0,5.0,3.0,6.0,6.0,3.0,4.0,6.0,99.0,99.0,99.0,6.0,6.0,4.0,5.0,5.0,4.0,4.0,5.0,4.0,5.0,2.0,3.0,3.0,6.0,4.0,"Inability to participate in my usual fitness activities, strongly agree",6.0,6.0,6.0,6.0,6.0,6.0,6.0,6.0,6.0,6.0,3.0,5.0,6.0,4.0,4.0,4.0,4.0,1.0,5.0,4.0,3.0,4.0,3.0,4.0,1.0,5.0,,5.0,6.0,4.0,5.0,6.0,4.0,,3.3,3.0,3.0,4.333333,4.666667,4.333333,4.0,6.0
107686,1307,2020-03-30 11:32:45,EN,21,Female,"Some College, short continuing education or equivalent",Some College or equivalent,Full time employed,United States,no,Texas,Single,2.0,No,Life carries on with minor changes,4.0,0.0,Program A,,Yes,4.0,2.0,4.0,3.0,4.0,3.0,4.0,3.0,2.0,2.0,2.0,2.0,1.0,5.0,9.0,3.0,8.0,6.0,1.0,8.0,1.0,5.0,5.0,5.0,5.0,5.0,0.0,5.0,5.0,5.0,2.0,2.0,5.0,4.0,4.0,3.0,5.0,5.0,2.0,5.0,5.0,4.0,4.0,4.0,4.0,5.0,2.0,5.0,6.0,5.0,99.0,5.0,5.0,5.0,5.0,4.0,99.0,5.0,5.0,5.0,5.0,6.0,99.0,3.0,2.0,2.0,2.0,2.0,5.0,3.0,5.0,5.0,,5.0,2.0,5.0,5.0,6.0,5.0,5.0,6.0,4.0,5.0,2.0,5.0,5.0,5.0,5.0,5.0,2.0,2.0,6.0,3.0,3.0,4.0,3.0,5.0,6.0,2.0,,2.0,2.0,4.0,2.0,4.0,5.0,,2.7,1.666667,4.0,5.0,4.666667,3.666667,5.0,4.8
107694,1714,2020-03-31 11:39:10,EN,23,Female,"Some College, short continuing education or equivalent",Some College or equivalent,Full time employed,United States,no,Pennsylvania,Single,0.0,Yes,Isolated,1.0,0.0,Program A,,No,2.0,2.0,3.0,4.0,3.0,2.0,4.0,4.0,1.0,2.0,1.0,3.0,2.0,2.0,6.0,2.0,4.0,4.0,4.0,,1.0,4.0,5.0,4.0,6.0,6.0,2.0,,,,,,,,,,,,,,,,,,,,,,,,,,,,,,,,,,,,,,,,,,,,,,,,,,,,,,,,,,,,,,,,,,,,,,,,,,,,,,,,,2.1,2.0,,,,,,
107714,1477,2020-03-30 11:33:26,EN,49,Female,"College degree, bachelor, master",Some College or equivalent,Full time employed,United States,no,,Married/cohabiting,0.0,No,Life carries on with minor changes,2.0,0.0,Program B,,No,2.0,2.0,2.0,3.0,3.0,1.0,4.0,5.0,3.0,2.0,2.0,2.0,3.0,8.0,9.0,5.0,7.0,7.0,3.0,8.0,0.0,5.0,5.0,5.0,6.0,5.0,0.0,6.0,4.0,5.0,2.0,4.0,2.0,4.0,3.0,4.0,2.0,1.0,5.0,4.0,5.0,5.0,5.0,2.0,3.0,4.0,5.0,5.0,2.0,2.0,99.0,4.0,6.0,2.0,99.0,3.0,99.0,6.0,3.0,6.0,5.0,5.0,99.0,2.0,2.0,3.0,3.0,6.0,5.0,5.0,2.0,5.0,,5.0,5.0,5.0,5.0,5.0,6.0,6.0,6.0,6.0,6.0,4.0,4.0,5.0,3.0,4.0,4.0,1.0,2.0,4.0,4.0,2.0,4.0,4.0,5.0,1.0,5.0,,4.0,5.0,5.0,3.0,5.0,4.0,,2.1,2.333333,3.333333,1.666667,4.666667,2.333333,3.666667,5.5
107723,18034,2020-03-31 16:08:46,EN,61,Male,"College degree, bachelor, master",Some College or equivalent,Retired,United States,no,Colorado,Married/cohabiting,0.0,Yes,Isolated,1.0,0.0,,Program C,,,,,,,,,,,,,,,,,,,,,,,,,,,,,,,,,,,,,,,,,,,,,,,,,,,,,,,,,,,,,,,,,,,,,,,,,,,,,,,,,,,,,,,,,,,,,,,,,,,,,,,,,,,,,,,,,,,,
107800,1253,2020-03-30 11:23:07,EN,65,Female,"College degree, bachelor, master",Some College or equivalent,Not employed,United States,no,Washington,Divorced/widowed,0.0,Yes,Isolated,1.0,0.0,Program A,,No,1.0,1.0,3.0,4.0,4.0,5.0,4.0,4.0,1.0,1.0,3.0,1.0,2.0,5.0,7.0,0.0,0.0,2.0,8.0,8.0,0.0,4.0,4.0,4.0,6.0,6.0,0.0,6.0,6.0,6.0,1.0,6.0,2.0,5.0,5.0,5.0,5.0,2.0,5.0,1.0,5.0,2.0,4.0,5.0,5.0,5.0,2.0,5.0,1.0,1.0,6.0,1.0,5.0,2.0,1.0,1.0,99.0,6.0,6.0,5.0,3.0,6.0,1.0,1.0,1.0,2.0,1.0,1.0,5.0,1.0,3.0,1.0,"I need to go to Urgent Care for a medical problem, and I am really worried about catching coronavirus while I'm there.",6.0,5.0,5.0,5.0,5.0,5.0,5.0,6.0,5.0,6.0,1.0,2.0,5.0,3.0,3.0,2.0,1.0,4.0,3.0,3.0,2.0,5.0,1.0,5.0,1.0,1.0,,1.0,5.0,4.0,5.0,1.0,1.0,,2.0,2.0,4.0,3.0,2.666667,4.333333,5.0,5.3
107829,991,2020-03-30 11:16:30,EN,53,Female,"Some College, short continuing education or equivalent",,Full time employed,United States,no,Michigan,Married/cohabiting,2.0,Yes,Life carries on with minor changes,3.0,0.0,,Program C,No,2.0,2.0,5.0,4.0,3.0,1.0,4.0,4.0,1.0,3.0,2.0,3.0,4.0,8.0,9.0,4.0,7.0,7.0,9.0,10.0,3.0,5.0,5.0,5.0,5.0,5.0,3.0,5.0,6.0,6.0,2.0,5.0,1.0,4.0,2.0,5.0,5.0,5.0,2.0,4.0,3.0,4.0,2.0,5.0,5.0,5.0,4.0,5.0,99.0,4.0,99.0,5.0,3.0,6.0,4.0,5.0,4.0,5.0,5.0,5.0,5.0,4.0,4.0,6.0,2.0,5.0,5.0,2.0,5.0,2.0,6.0,2.0,,5.0,5.0,5.0,5.0,5.0,5.0,5.0,5.0,5.0,5.0,2.0,5.0,2.0,1.0,2.0,5.0,2.0,2.0,5.0,2.0,4.0,4.0,5.0,5.0,2.0,3.0,,2.0,4.0,3.0,3.0,4.0,1.0,,2.3,3.0,2.666667,5.0,3.666667,5.0,4.333333,5.0
107832,2522,2020-03-30 11:41:49,EN,41,Female,"College degree, bachelor, master",Up to 12 years of school,Full time employed,United States,no,MI,Married/cohabiting,3.0,Yes,Isolated,1.0,2.0,,Program D,No,2.0,2.0,3.0,4.0,4.0,1.0,3.0,4.0,3.0,2.0,1.0,2.0,3.0,7.0,9.0,3.0,6.0,7.0,8.0,9.0,3.0,5.0,6.0,5.0,5.0,5.0,0.0,6.0,6.0,5.0,1.0,3.0,2.0,4.0,4.0,4.0,3.0,3.0,4.0,5.0,5.0,5.0,1.0,4.0,6.0,5.0,3.0,4.0,6.0,3.0,6.0,5.0,5.0,5.0,3.0,2.0,3.0,4.0,5.0,6.0,5.0,6.0,2.0,2.0,2.0,2.0,2.0,3.0,3.0,3.0,6.0,2.0,,6.0,5.0,6.0,5.0,5.0,6.0,6.0,6.0,5.0,5.0,4.0,2.0,5.0,2.0,5.0,5.0,2.0,2.0,5.0,5.0,5.0,5.0,5.0,5.0,4.0,5.0,,4.0,3.0,4.0,3.0,3.0,3.0,,2.2,2.0,3.666667,3.0,5.0,5.333333,4.333333,5.5
107860,931,2020-03-30 11:12:23,ZH-T,35,Male,PhD/Doctorate,PhD/Doctorate,Student,United States,yes,Massachusetts,Married/cohabiting,0.0,No,Life carries on with minor changes,0.0,0.0,Program A,,No,2.0,2.0,3.0,5.0,2.0,2.0,2.0,3.0,1.0,2.0,1.0,1.0,3.0,1.0,2.0,3.0,4.0,2.0,2.0,,3.0,4.0,4.0,4.0,4.0,4.0,4.0,5.0,6.0,6.0,2.0,4.0,5.0,5.0,5.0,5.0,5.0,5.0,2.0,5.0,5.0,5.0,4.0,5.0,5.0,4.0,5.0,4.0,4.0,4.0,99.0,6.0,4.0,5.0,3.0,4.0,99.0,5.0,5.0,4.0,4.0,4.0,3.0,3.0,4.0,3.0,3.0,5.0,5.0,4.0,3.0,4.0,,6.0,6.0,4.0,6.0,6.0,6.0,6.0,6.0,4.0,6.0,4.0,3.0,4.0,3.0,4.0,3.0,2.0,2.0,3.0,3.0,4.0,4.0,3.0,5.0,4.0,5.0,,4.0,5.0,4.0,3.0,4.0,4.0,,2.4,1.666667,4.0,5.0,5.0,4.333333,3.333333,5.6
107866,1042,2020-03-30 11:13:53,EN,49,Male,PhD/Doctorate,Up to 12 years of school,Self-employed,United States,no,Nj,Married/cohabiting,0.0,Yes,Isolated,1.0,0.0,Program A,,No,3.0,3.0,4.0,4.0,3.0,2.0,4.0,5.0,4.0,3.0,2.0,3.0,3.0,5.0,7.0,2.0,2.0,5.0,1.0,5.0,1.0,6.0,6.0,,6.0,6.0,1.0,6.0,5.0,5.0,5.0,1.0,4.0,5.0,5.0,3.0,4.0,4.0,2.0,6.0,6.0,6.0,4.0,4.0,4.0,3.0,4.0,4.0,6.0,6.0,99.0,6.0,5.0,5.0,1.0,4.0,99.0,6.0,4.0,6.0,6.0,5.0,99.0,4.0,3.0,4.0,6.0,,5.0,3.0,5.0,2.0,,5.0,5.0,6.0,6.0,6.0,6.0,6.0,6.0,5.0,6.0,2.0,3.0,6.0,2.0,5.0,4.0,1.0,1.0,4.0,4.0,3.0,4.0,2.0,5.0,4.0,3.0,Pets,4.0,4.0,3.0,4.0,5.0,2.0,Self-employed people won't get the same benefits as other workers. I have no I income and no paid leave.,2.7,2.666667,4.666667,4.333333,6.0,3.666667,3.333333,5.7
107904,981,2020-03-30 11:08:36,ZH-T,32,Male,PhD/Doctorate,Up to 12 years of school,Student,United States,yes,"Houston, Texas",Single,0.0,No,Life carries on with minor changes,,,,Program D,Yes,2.0,2.0,3.0,4.0,3.0,2.0,4.0,2.0,1.0,2.0,2.0,1.0,1.0,7.0,9.0,3.0,3.0,4.0,2.0,,3.0,4.0,2.0,4.0,5.0,4.0,2.0,4.0,5.0,5.0,2.0,2.0,6.0,6.0,6.0,4.0,4.0,4.0,5.0,4.0,4.0,4.0,2.0,5.0,5.0,5.0,5.0,3.0,2.0,4.0,99.0,2.0,4.0,2.0,1.0,2.0,99.0,5.0,6.0,4.0,4.0,4.0,3.0,2.0,2.0,2.0,2.0,2.0,5.0,4.0,5.0,2.0,,3.0,3.0,2.0,5.0,5.0,2.0,4.0,5.0,2.0,4.0,1.0,3.0,3.0,3.0,3.0,3.0,3.0,3.0,3.0,3.0,3.0,3.0,3.0,3.0,3.0,4.0,,6.0,6.0,6.0,4.0,6.0,4.0,,2.3,1.333333,5.0,3.333333,4.0,5.0,3.333333,3.5
107908,850,2020-03-30 11:06:12,ZH-T,37,Male,PhD/Doctorate,Some College or equivalent,Full time employed,United States,yes,Sugar land,Married/cohabiting,2.0,No,Life carries on with minor changes,1.0,2.0,,Program D,No,2.0,2.0,2.0,4.0,3.0,2.0,3.0,3.0,1.0,1.0,1.0,1.0,1.0,8.0,7.0,8.0,10.0,8.0,8.0,1.0,6.0,3.0,4.0,5.0,6.0,5.0,7.0,6.0,6.0,5.0,3.0,5.0,5.0,4.0,3.0,5.0,6.0,6.0,3.0,6.0,4.0,5.0,3.0,3.0,6.0,4.0,4.0,6.0,4.0,4.0,5.0,5.0,4.0,4.0,3.0,3.0,3.0,5.0,4.0,4.0,3.0,5.0,3.0,3.0,2.0,1.0,4.0,3.0,4.0,3.0,4.0,3.0,,4.0,3.0,4.0,4.0,4.0,4.0,4.0,4.0,4.0,4.0,2.0,2.0,2.0,3.0,2.0,4.0,2.0,2.0,2.0,2.0,2.0,2.0,2.0,2.0,2.0,2.0,,5.0,5.0,5.0,4.0,5.0,3.0,,2.1,1.0,3.0,5.333333,5.0,4.333333,4.333333,3.9
107911,1133,2020-03-30 11:10:31,ZH-T,33,Female,PhD/Doctorate,Some College or equivalent,Full time employed,United States,yes,Texas,Single,0.0,No,Life carries on with minor changes,,,,Program C,Not sure,3.0,2.0,3.0,3.0,3.0,3.0,3.0,3.0,2.0,3.0,1.0,1.0,1.0,5.0,6.0,5.0,7.0,5.0,3.0,0.0,1.0,4.0,4.0,4.0,5.0,4.0,0.0,5.0,6.0,6.0,2.0,4.0,6.0,4.0,4.0,3.0,4.0,4.0,3.0,4.0,5.0,3.0,2.0,4.0,4.0,3.0,3.0,4.0,3.0,3.0,99.0,4.0,6.0,2.0,2.0,5.0,99.0,4.0,3.0,5.0,6.0,4.0,4.0,4.0,3.0,4.0,4.0,5.0,4.0,5.0,6.0,6.0,,5.0,4.0,3.0,5.0,5.0,4.0,5.0,5.0,3.0,5.0,2.0,2.0,2.0,2.0,2.0,2.0,2.0,2.0,2.0,2.0,2.0,2.0,2.0,2.0,2.0,2.0,,5.0,5.0,5.0,3.0,3.0,2.0,,2.8,1.0,4.0,4.0,4.0,4.333333,3.666667,4.4
107914,986,2020-03-30 11:07:52,ZH-T,23,Female,PhD/Doctorate,PhD/Doctorate,Student,United States,no,New York,Single,2.0,No,Life carries on with minor changes,,,Program A,,Not sure,3.0,4.0,3.0,3.0,2.0,2.0,3.0,1.0,2.0,2.0,4.0,1.0,3.0,8.0,9.0,8.0,7.0,6.0,7.0,5.0,9.0,5.0,3.0,3.0,6.0,4.0,8.0,5.0,5.0,5.0,2.0,5.0,4.0,5.0,5.0,4.0,4.0,4.0,4.0,5.0,5.0,3.0,1.0,6.0,6.0,4.0,4.0,5.0,6.0,99.0,99.0,5.0,2.0,5.0,2.0,2.0,99.0,6.0,4.0,4.0,4.0,4.0,99.0,2.0,5.0,4.0,5.0,4.0,5.0,3.0,6.0,4.0,,6.0,2.0,4.0,4.0,5.0,5.0,3.0,5.0,6.0,6.0,2.0,2.0,2.0,2.0,2.0,2.0,1.0,1.0,2.0,4.0,3.0,2.0,4.0,2.0,2.0,3.0,,5.0,5.0,3.0,5.0,5.0,2.0,,3.1,2.666667,4.333333,3.666667,4.333333,6.0,4.0,4.6
107925,1031,2020-03-30 11:07:05,EN,35,Female,"College degree, bachelor, master",Some College or equivalent,Full time employed,United States,no,Newyork,Married/cohabiting,0.0,No,Life carries on with minor changes,1.0,0.0,Program B,,No,5.0,5.0,5.0,3.0,1.0,4.0,2.0,2.0,5.0,4.0,3.0,3.0,5.0,6.0,9.0,2.0,1.0,0.0,1.0,6.0,2.0,6.0,5.0,6.0,6.0,6.0,0.0,6.0,6.0,6.0,6.0,3.0,2.0,3.0,3.0,4.0,6.0,5.0,5.0,4.0,6.0,3.0,6.0,6.0,6.0,5.0,2.0,6.0,6.0,5.0,1.0,6.0,6.0,6.0,1.0,5.0,2.0,6.0,6.0,6.0,6.0,6.0,2.0,5.0,6.0,5.0,6.0,3.0,5.0,2.0,6.0,5.0,,6.0,5.0,5.0,5.0,5.0,5.0,5.0,5.0,5.0,6.0,2.0,5.0,6.0,5.0,6.0,2.0,2.0,2.0,5.0,4.0,1.0,4.0,6.0,5.0,1.0,2.0,,5.0,4.0,4.0,4.0,5.0,2.0,,4.4,3.666667,3.0,4.333333,4.333333,4.333333,5.333333,5.2
107965,1833,2020-03-31 11:15:30,EN,51,Female,"College degree, bachelor, master",Up to 12 years of school,Self-employed,United States,no,GA,Married/cohabiting,0.0,No,Isolated,1.0,0.0,,Program C,No,3.0,3.0,4.0,4.0,3.0,3.0,4.0,3.0,3.0,1.0,2.0,3.0,3.0,5.0,9.0,8.0,8.0,8.0,8.0,6.0,8.0,5.0,6.0,6.0,6.0,5.0,5.0,5.0,6.0,6.0,1.0,4.0,2.0,4.0,4.0,4.0,5.0,6.0,2.0,6.0,6.0,5.0,1.0,6.0,6.0,4.0,2.0,5.0,,,,,,,,,,,,,,,,,,,,,,,,,,,,,,,,,,,,,,,,,,,,,,,,,,,,,,,,,,,,2.7,2.666667,3.666667,5.333333,5.666667,6.0,4.666667,
107973,955,2020-03-30 11:00:02,EN,22,Female,"College degree, bachelor, master",College degree,Student,United States,no,Pennsylvania,Single,0.0,Yes,Isolated,2.0,0.0,,Program D,No,3.0,4.0,5.0,4.0,2.0,3.0,5.0,3.0,4.0,4.0,5.0,4.0,5.0,7.0,8.0,1.0,3.0,3.0,1.0,6.0,0.0,4.0,5.0,3.0,5.0,6.0,3.0,5.0,3.0,3.0,4.0,2.0,2.0,4.0,3.0,6.0,6.0,6.0,2.0,6.0,6.0,4.0,3.0,5.0,6.0,5.0,2.0,5.0,4.0,4.0,99.0,2.0,2.0,6.0,5.0,5.0,99.0,5.0,4.0,3.0,4.0,2.0,99.0,5.0,2.0,6.0,6.0,5.0,3.0,2.0,6.0,6.0,Moving back home with my parents when I moved out four years ago for college. My generation is struggling moving back home with the parents and leaving the freedom of our school lives.,6.0,6.0,3.0,5.0,6.0,5.0,6.0,6.0,6.0,6.0,1.0,4.0,6.0,2.0,4.0,4.0,5.0,4.0,6.0,6.0,3.0,1.0,6.0,5.0,6.0,2.0,,1.0,3.0,5.0,4.0,2.0,1.0,There has been so much misinformation from the United States government. The misinformation is coming out of President Trump and his ignorant selfishness. If Trump wasnt my president right now I would feel lot safer.,3.3,4.666667,2.666667,5.666667,5.333333,5.0,5.0,5.5
107979,679,2020-03-31 10:55:11,EN,45,Female,"College degree, bachelor, master",College degree,Full time employed,United States,no,Mi,Married/cohabiting,2.0,Yes,Isolated,2.0,2.0,Program A,,No,4.0,3.0,4.0,3.0,2.0,3.0,3.0,3.0,4.0,3.0,1.0,2.0,3.0,9.0,10.0,1.0,5.0,6.0,1.0,9.0,0.0,4.0,4.0,5.0,4.0,5.0,0.0,6.0,5.0,6.0,2.0,3.0,4.0,5.0,6.0,3.0,4.0,3.0,4.0,4.0,6.0,5.0,4.0,4.0,5.0,5.0,4.0,5.0,5.0,5.0,6.0,4.0,4.0,2.0,1.0,1.0,5.0,6.0,2.0,5.0,4.0,5.0,2.0,2.0,3.0,2.0,4.0,3.0,1.0,1.0,6.0,4.0,,5.0,6.0,6.0,6.0,5.0,6.0,6.0,6.0,6.0,6.0,1.0,4.0,5.0,1.0,5.0,3.0,1.0,1.0,5.0,4.0,4.0,4.0,4.0,2.0,1.0,1.0,,2.0,5.0,4.0,3.0,4.0,3.0,"We have stepchildren who are travelling back and forth every 10 days or so between mom and dads house. I live with their dad. Mom is always impossibly mean but now even more so. Sees it as a competition, how much time kids get to spend with each of us and claims they only want to be with her which is not the case. Very hard times for stepfamilies.",3.4,2.0,5.0,3.333333,5.0,4.0,4.333333,5.8
107983,476,2020-03-31 10:50:45,EN,26,Female,"College degree, bachelor, master",Up to 12 years of school,Full time employed,United States,no,FL,Married/cohabiting,0.0,Yes,Isolated,1.0,0.0,,Program C,No,3.0,3.0,5.0,3.0,4.0,2.0,3.0,3.0,4.0,3.0,2.0,3.0,3.0,5.0,9.0,4.0,8.0,6.0,3.0,10.0,3.0,5.0,6.0,5.0,6.0,5.0,0.0,4.0,4.0,5.0,1.0,1.0,4.0,4.0,3.0,6.0,5.0,4.0,2.0,6.0,5.0,5.0,1.0,5.0,6.0,6.0,4.0,5.0,3.0,4.0,99.0,5.0,6.0,5.0,4.0,5.0,99.0,6.0,6.0,6.0,6.0,6.0,1.0,1.0,3.0,5.0,5.0,3.0,5.0,3.0,6.0,3.0,,,,,,,,,,,,,,,,,,,,,,,,,,,,,,,,,,,,3.1,2.666667,2.666667,4.666667,5.333333,5.666667,4.666667,
107984,800,2020-03-31 10:55:57,EN,53,Female,"College degree, bachelor, master",Up to 12 years of school,Full time employed,United States,yes,Mi,Married/cohabiting,2.0,Yes,Isolated,4.0,0.0,Program B,,No,3.0,5.0,4.0,3.0,2.0,3.0,3.0,3.0,3.0,3.0,1.0,1.0,4.0,9.0,10.0,7.0,9.0,7.0,9.0,8.0,7.0,6.0,6.0,6.0,6.0,6.0,3.0,5.0,5.0,6.0,6.0,5.0,3.0,4.0,4.0,5.0,3.0,2.0,5.0,5.0,5.0,5.0,2.0,4.0,5.0,3.0,3.0,5.0,6.0,5.0,6.0,5.0,6.0,6.0,5.0,5.0,99.0,6.0,6.0,6.0,1.0,6.0,5.0,5.0,6.0,3.0,6.0,6.0,5.0,1.0,6.0,2.0,,,,,,,,,,,,,,,,,,,,,,,,,,,,,,,,,,,,3.4,2.0,3.333333,2.333333,5.0,4.666667,4.0,
107986,1504,2020-03-31 11:07:21,EN,29,Female,PhD/Doctorate,College degree,Part time employed,United States,no,rhode island,Single,0.0,Yes,Life carries on with minor changes,1.0,0.0,Program B,,No,3.0,2.0,4.0,3.0,3.0,4.0,3.0,3.0,2.0,3.0,4.0,3.0,4.0,8.0,8.0,3.0,1.0,6.0,9.0,8.0,2.0,5.0,6.0,5.0,6.0,6.0,0.0,5.0,3.0,3.0,4.0,3.0,6.0,6.0,6.0,2.0,5.0,6.0,2.0,4.0,6.0,4.0,4.0,5.0,4.0,3.0,5.0,5.0,6.0,6.0,99.0,3.0,4.0,4.0,99.0,3.0,99.0,5.0,3.0,5.0,6.0,4.0,3.0,2.0,3.0,4.0,5.0,3.0,5.0,4.0,4.0,3.0,Student loan payments and further future debt,6.0,6.0,6.0,5.0,6.0,6.0,6.0,6.0,6.0,5.0,3.0,1.0,4.0,1.0,6.0,5.0,1.0,1.0,4.0,5.0,5.0,1.0,6.0,6.0,6.0,4.0,,3.0,5.0,5.0,1.0,3.0,3.0,,3.0,3.666667,5.666667,5.333333,4.666667,4.0,3.333333,5.8
107992,1602,2020-03-30 11:07:17,EN,38,Female,"Some College, short continuing education or equivalent",College degree,Full time employed,United States,no,California,Married/cohabiting,0.0,Not sure,Isolated,1.0,0.0,,Program D,No,3.0,4.0,4.0,4.0,2.0,1.0,3.0,3.0,1.0,2.0,2.0,2.0,4.0,3.0,8.0,3.0,9.0,5.0,4.0,10.0,3.0,5.0,5.0,5.0,6.0,6.0,1.0,6.0,6.0,6.0,1.0,1.0,4.0,5.0,4.0,4.0,4.0,3.0,4.0,5.0,6.0,6.0,1.0,3.0,5.0,4.0,3.0,4.0,4.0,1.0,99.0,4.0,5.0,5.0,3.0,4.0,99.0,5.0,3.0,6.0,6.0,5.0,2.0,4.0,4.0,4.0,1.0,6.0,4.0,2.0,2.0,6.0,Can we have a new US President yet? Please!,5.0,5.0,4.0,5.0,5.0,4.0,5.0,5.0,5.0,5.0,3.0,1.0,4.0,1.0,4.0,4.0,6.0,6.0,6.0,4.0,5.0,5.0,4.0,4.0,4.0,3.0,,5.0,6.0,6.0,3.0,4.0,3.0,The California Governor and Los Angeles Mayor are great!,2.7,2.666667,4.0,3.333333,5.666667,4.666667,4.0,4.8
107994,1319,2020-03-30 11:02:18,EN,31,Male,"College degree, bachelor, master",PhD/Doctorate,Self-employed,United States,no,Washington,Single,0.0,Yes,Isolated,3.0,0.0,,Program C,No,1.0,2.0,3.0,4.0,4.0,2.0,4.0,4.0,1.0,2.0,2.0,1.0,1.0,7.0,9.0,4.0,9.0,6.0,9.0,7.0,6.0,2.0,6.0,4.0,5.0,5.0,3.0,6.0,6.0,5.0,4.0,4.0,2.0,3.0,3.0,4.0,6.0,3.0,4.0,6.0,6.0,5.0,2.0,6.0,6.0,4.0,4.0,5.0,4.0,1.0,1.0,2.0,1.0,1.0,1.0,1.0,1.0,4.0,1.0,3.0,2.0,1.0,1.0,1.0,1.0,1.0,1.0,1.0,1.0,1.0,2.0,1.0,,6.0,4.0,6.0,6.0,6.0,5.0,6.0,6.0,6.0,6.0,3.0,4.0,2.0,1.0,3.0,4.0,5.0,4.0,4.0,4.0,1.0,4.0,5.0,5.0,6.0,4.0,,1.0,4.0,2.0,2.0,2.0,3.0,,1.9,1.333333,3.0,4.0,5.666667,5.666667,4.0,5.7
108006,979,2020-03-30 10:55:46,EN,44,Female,"Some College, short continuing education or equivalent",Some College or equivalent,Full time employed,United States,no,Michigan,Married/cohabiting,2.0,Yes,Isolated,1.0,1.0,Program A,,No,2.0,2.0,4.0,3.0,3.0,4.0,4.0,3.0,2.0,3.0,1.0,4.0,5.0,2.0,4.0,2.0,6.0,6.0,0.0,8.0,0.0,6.0,6.0,6.0,6.0,6.0,0.0,6.0,6.0,6.0,1.0,1.0,2.0,6.0,5.0,6.0,6.0,5.0,2.0,6.0,6.0,6.0,1.0,6.0,6.0,2.0,2.0,6.0,6.0,3.0,5.0,6.0,6.0,5.0,1.0,6.0,6.0,5.0,5.0,6.0,6.0,4.0,1.0,2.0,1.0,2.0,2.0,99.0,2.0,1.0,5.0,6.0,"I have two neuro-diverse kids. The stress of managing their emotions along with mine and my husband's, paired with caring remotely for elderly parents has put a strain on my mental balance. I am seeking medical treatment to manage my mood from a doctor.",4.0,5.0,5.0,5.0,5.0,6.0,5.0,6.0,6.0,5.0,4.0,1.0,5.0,2.0,4.0,6.0,6.0,6.0,1.0,6.0,1.0,2.0,2.0,4.0,4.0,3.0,I send a daily check in video to my Girl Scout Troop encouraging them to live the Girl Scout Law during this crisis and to lead.,5.0,5.0,6.0,1.0,1.0,1.0,"My two children and I are isolating, but my husband is essential staff and must go into the office twice per week. Every time we leave the house, I reset our two week calendar and worry.   Additionally, three people in my house have a disruptive mood disorder, the fourth has clinical depression. One child has SPD. All have ADHD and anxiety. We are most worried about maintaining our med protocol and being able to afford health care without an income. The US has an abhorrent ""for-profit"" health system that is going to kill a lot of people.",2.8,3.333333,4.0,5.333333,6.0,6.0,4.333333,5.2
108009,156,2020-03-31 10:42:05,EN,36,Other/would rather not say,PhD/Doctorate,College degree,Full time employed,United States,no,IL,Divorced/widowed,0.0,Yes,Isolated,1.0,0.0,,Program C,No,4.0,4.0,4.0,3.0,3.0,3.0,3.0,2.0,4.0,3.0,2.0,1.0,4.0,,,,,,,,,,,,,,,,,,,,,,,,,,,,,,,,,,,,,,,,,,,,,,,,,,,,,,,,,,,,,,,,,,,,,,,,,,,,,,,,,,,,,,,,,,,,,,,3.5,2.333333,,,,,,
108015,1347,2020-03-30 11:01:05,EN,57,Male,"College degree, bachelor, master",College degree,Part time employed,United States,no,CA,Single,0.0,Yes,Isolated,1.0,0.0,,Program D,No,2.0,2.0,2.0,5.0,4.0,2.0,4.0,4.0,2.0,2.0,2.0,2.0,3.0,6.0,8.0,2.0,6.0,6.0,6.0,7.0,4.0,5.0,5.0,5.0,6.0,5.0,1.0,5.0,5.0,6.0,4.0,5.0,2.0,4.0,5.0,4.0,4.0,5.0,5.0,4.0,5.0,5.0,4.0,5.0,5.0,5.0,4.0,5.0,4.0,4.0,99.0,3.0,2.0,3.0,99.0,3.0,99.0,4.0,3.0,3.0,3.0,5.0,3.0,3.0,3.0,3.0,3.0,3.0,2.0,2.0,3.0,2.0,,6.0,5.0,5.0,6.0,6.0,5.0,5.0,6.0,5.0,5.0,4.0,2.0,5.0,2.0,5.0,5.0,4.0,5.0,5.0,4.0,4.0,4.0,4.0,5.0,4.0,4.0,,5.0,5.0,4.0,4.0,4.0,4.0,,1.9,2.333333,4.0,3.666667,4.666667,4.333333,4.333333,5.4
108025,1117,2020-03-30 10:56:07,EN,28,Male,"College degree, bachelor, master",College degree,Not employed,United States,no,New Jersey,Single,0.0,Yes,Isolated,0.0,0.0,Program A,,No,3.0,4.0,3.0,4.0,3.0,3.0,4.0,2.0,3.0,2.0,3.0,3.0,3.0,6.0,8.0,3.0,3.0,4.0,5.0,1.0,5.0,5.0,6.0,6.0,6.0,5.0,4.0,6.0,5.0,5.0,2.0,3.0,1.0,4.0,2.0,4.0,4.0,1.0,4.0,5.0,5.0,5.0,6.0,5.0,3.0,4.0,4.0,4.0,4.0,99.0,99.0,6.0,4.0,2.0,2.0,99.0,99.0,6.0,3.0,5.0,6.0,5.0,99.0,1.0,2.0,4.0,4.0,3.0,4.0,2.0,4.0,1.0,,5.0,5.0,5.0,4.0,5.0,4.0,6.0,5.0,4.0,6.0,3.0,2.0,5.0,1.0,1.0,4.0,5.0,5.0,5.0,2.0,3.0,3.0,3.0,4.0,1.0,4.0,,3.0,5.0,2.0,4.0,4.0,4.0,,2.9,3.0,3.0,2.666667,5.0,3.0,3.666667,4.9
108043,760,2020-03-30 10:47:52,EN,48,Female,"College degree, bachelor, master",College degree,Not employed,United States,no,Colorado,Married/cohabiting,2.0,Yes,Isolated,1.0,2.0,,Program D,Not sure,3.0,3.0,4.0,4.0,3.0,3.0,3.0,2.0,3.0,3.0,1.0,4.0,3.0,4.0,6.0,3.0,5.0,5.0,4.0,8.0,0.0,5.0,6.0,5.0,5.0,5.0,0.0,6.0,6.0,6.0,1.0,1.0,3.0,4.0,4.0,3.0,4.0,2.0,5.0,5.0,5.0,5.0,3.0,5.0,5.0,4.0,4.0,4.0,3.0,99.0,3.0,99.0,4.0,3.0,2.0,2.0,4.0,3.0,4.0,4.0,5.0,5.0,3.0,3.0,99.0,4.0,4.0,99.0,2.0,2.0,3.0,99.0,,5.0,5.0,2.0,5.0,6.0,3.0,6.0,6.0,5.0,6.0,3.0,3.0,3.0,2.0,3.0,4.0,1.0,3.0,4.0,3.0,4.0,3.0,3.0,3.0,3.0,4.0,,4.0,4.0,4.0,4.0,4.0,2.0,,3.1,2.666667,4.0,2.666667,5.0,4.666667,3.666667,4.9
108045,359,2020-03-31 10:41:01,ZH-T,34,Female,PhD/Doctorate,PhD/Doctorate,Student,United States,no,Missourti,Married/cohabiting,0.0,No,Isolated,1.0,0.0,,Program D,Yes,1.0,2.0,1.0,4.0,3.0,1.0,1.0,3.0,1.0,1.0,1.0,1.0,4.0,5.0,1.0,1.0,1.0,1.0,1.0,1.0,2.0,2.0,2.0,2.0,5.0,5.0,0.0,2.0,6.0,6.0,1.0,3.0,4.0,1.0,1.0,6.0,1.0,1.0,6.0,4.0,2.0,4.0,4.0,3.0,1.0,3.0,2.0,5.0,3.0,1.0,1.0,1.0,5.0,1.0,1.0,1.0,1.0,5.0,1.0,5.0,4.0,5.0,1.0,1.0,1.0,1.0,1.0,1.0,5.0,2.0,1.0,1.0,,,,,,,,,,,,,,,,,,,,,,,,,,,,,,,,,,,,2.0,2.0,1.0,1.0,3.333333,2.333333,4.333333,
108055,1108,2020-03-30 10:51:30,EN,34,Male,"College degree, bachelor, master",College degree,Full time employed,United States,no,Florida,Single,0.0,Yes,Isolated,0.0,0.0,Program B,,No,4.0,4.0,5.0,4.0,2.0,2.0,2.0,3.0,5.0,4.0,3.0,3.0,4.0,5.0,8.0,6.0,6.0,4.0,5.0,1.0,8.0,5.0,6.0,6.0,5.0,4.0,7.0,6.0,4.0,5.0,4.0,3.0,5.0,5.0,5.0,3.0,3.0,1.0,5.0,5.0,4.0,5.0,5.0,5.0,4.0,4.0,5.0,4.0,3.0,3.0,99.0,4.0,5.0,5.0,5.0,99.0,99.0,6.0,3.0,6.0,6.0,6.0,2.0,3.0,1.0,4.0,2.0,99.0,2.0,3.0,5.0,1.0,,5.0,5.0,5.0,5.0,5.0,4.0,5.0,5.0,4.0,5.0,3.0,4.0,5.0,2.0,4.0,4.0,5.0,5.0,4.0,3.0,4.0,2.0,3.0,5.0,6.0,3.0,,4.0,5.0,1.0,4.0,3.0,2.0,,3.7,3.333333,4.666667,2.0,4.666667,3.666667,3.333333,4.8
108061,843,2020-03-30 10:45:54,EN,51,Male,PhD/Doctorate,College degree,Full time employed,United States,no,Pennsylvania,Married/cohabiting,2.0,No,Isolated,1.0,0.0,,Program C,No,2.0,3.0,3.0,4.0,2.0,1.0,4.0,4.0,2.0,1.0,3.0,2.0,5.0,8.0,9.0,1.0,6.0,8.0,9.0,10.0,1.0,3.0,4.0,4.0,6.0,6.0,0.0,6.0,6.0,6.0,1.0,5.0,1.0,4.0,2.0,5.0,3.0,3.0,6.0,6.0,6.0,6.0,4.0,5.0,5.0,4.0,2.0,5.0,1.0,1.0,5.0,4.0,1.0,5.0,4.0,4.0,99.0,4.0,5.0,4.0,6.0,6.0,1.0,1.0,1.0,2.0,1.0,1.0,1.0,1.0,2.0,1.0,,6.0,6.0,5.0,4.0,5.0,5.0,5.0,5.0,5.0,6.0,4.0,4.0,5.0,1.0,6.0,5.0,5.0,,4.0,4.0,4.0,4.0,4.0,6.0,4.0,5.0,,2.0,4.0,5.0,3.0,3.0,3.0,,2.2,3.333333,2.666667,2.333333,6.0,4.333333,4.666667,5.2
108066,889,2020-03-30 10:45:59,EN,40,Male,PhD/Doctorate,PhD/Doctorate,Full time employed,United States,no,Georgia,Married/cohabiting,0.0,Yes,Isolated,1.0,0.0,,Program C,No,3.0,3.0,3.0,4.0,3.0,2.0,4.0,3.0,5.0,2.0,3.0,2.0,4.0,5.0,8.0,3.0,2.0,6.0,4.0,6.0,2.0,3.0,6.0,4.0,5.0,4.0,1.0,5.0,4.0,4.0,4.0,3.0,2.0,5.0,5.0,4.0,6.0,2.0,4.0,5.0,4.0,6.0,4.0,4.0,4.0,2.0,5.0,4.0,3.0,3.0,99.0,4.0,3.0,4.0,99.0,1.0,99.0,5.0,4.0,5.0,6.0,5.0,99.0,3.0,3.0,4.0,4.0,3.0,2.0,2.0,6.0,99.0,Lack of leadership from my government.,6.0,6.0,6.0,6.0,6.0,6.0,6.0,6.0,6.0,6.0,2.0,4.0,5.0,1.0,5.0,4.0,5.0,3.0,4.0,3.0,2.0,3.0,3.0,2.0,2.0,2.0,,4.0,4.0,4.0,5.0,5.0,4.0,,2.8,3.0,4.333333,3.666667,5.0,3.666667,2.666667,6.0
108067,553,2020-03-30 10:40:17,EN,23,Female,"Some College, short continuing education or equivalent",Up to 12 years of school,Self-employed,United States,no,NY,Single,0.0,Yes,Isolated,3.0,1.0,Program A,,No,4.0,4.0,5.0,2.0,2.0,3.0,2.0,2.0,4.0,4.0,3.0,2.0,4.0,3.0,4.0,5.0,3.0,5.0,2.0,7.0,1.0,5.0,5.0,5.0,6.0,6.0,0.0,6.0,6.0,6.0,6.0,1.0,6.0,6.0,4.0,2.0,2.0,2.0,3.0,6.0,6.0,6.0,2.0,4.0,6.0,6.0,6.0,5.0,6.0,6.0,4.0,6.0,6.0,1.0,1.0,6.0,6.0,5.0,2.0,6.0,6.0,6.0,1.0,1.0,1.0,2.0,6.0,6.0,1.0,2.0,6.0,2.0,My career is being halted and my routine has been upended,5.0,5.0,5.0,4.0,6.0,5.0,5.0,5.0,6.0,5.0,1.0,3.0,1.0,1.0,1.0,4.0,6.0,1.0,6.0,1.0,1.0,2.0,1.0,6.0,1.0,4.0,,5.0,5.0,4.0,5.0,6.0,1.0,,4.0,3.0,5.0,2.666667,6.0,5.0,4.0,5.1
108072,4232,2020-03-31 11:41:06,ZH-T,29,Male,PhD/Doctorate,Some College or equivalent,Student,United States,yes,<U+83EF><U+76DB><U+9813><U+5DDE>,Single,0.0,No,Life carries on with minor changes,2.0,0.0,Program B,,No,3.0,1.0,3.0,4.0,3.0,2.0,3.0,2.0,3.0,2.0,3.0,3.0,4.0,7.0,9.0,5.0,5.0,5.0,1.0,0.0,1.0,4.0,3.0,3.0,4.0,4.0,0.0,4.0,5.0,6.0,4.0,3.0,3.0,1.0,2.0,5.0,4.0,5.0,1.0,4.0,5.0,5.0,2.0,6.0,5.0,2.0,2.0,6.0,4.0,5.0,2.0,4.0,2.0,6.0,1.0,4.0,1.0,5.0,4.0,5.0,2.0,5.0,5.0,5.0,3.0,5.0,6.0,6.0,5.0,5.0,5.0,6.0,,,,,,,,,,,,,,,,,,,,,,,,,,,,,,,,,,,,2.6,3.333333,1.666667,5.0,4.666667,5.333333,4.333333,
108086,679,2020-03-30 10:39:47,EN,25,Female,"College degree, bachelor, master",Up to 12 years of school,Full time employed,United States,no,PA,Single,0.0,Yes,Isolated,4.0,0.0,,Program D,Yes,5.0,5.0,5.0,4.0,3.0,1.0,4.0,3.0,5.0,2.0,3.0,2.0,3.0,6.0,10.0,5.0,2.0,5.0,8.0,10.0,4.0,6.0,6.0,6.0,6.0,6.0,4.0,6.0,5.0,5.0,2.0,3.0,2.0,3.0,3.0,2.0,4.0,2.0,4.0,4.0,4.0,3.0,2.0,6.0,6.0,5.0,2.0,6.0,4.0,4.0,99.0,6.0,4.0,5.0,2.0,2.0,99.0,6.0,5.0,6.0,6.0,6.0,2.0,2.0,4.0,5.0,5.0,5.0,3.0,4.0,5.0,99.0,,6.0,6.0,6.0,6.0,6.0,5.0,6.0,6.0,5.0,6.0,4.0,6.0,6.0,2.0,5.0,4.0,2.0,2.0,6.0,5.0,4.0,5.0,4.0,5.0,3.0,5.0,,6.0,4.0,5.0,5.0,6.0,5.0,,3.3,2.666667,3.666667,3.0,3.666667,5.666667,5.333333,5.8
108094,533,2020-03-31 10:37:17,EN,44,Female,"College degree, bachelor, master",Some College or equivalent,Full time employed,United States,no,Minnesota,Married/cohabiting,0.0,No,Isolated,1.0,0.0,,Program C,No,4.0,5.0,5.0,3.0,2.0,3.0,3.0,2.0,2.0,4.0,2.0,4.0,3.0,6.0,7.0,3.0,3.0,7.0,5.0,7.0,1.0,3.0,4.0,4.0,5.0,5.0,3.0,5.0,4.0,4.0,3.0,4.0,4.0,5.0,5.0,3.0,5.0,3.0,4.0,6.0,6.0,6.0,4.0,5.0,5.0,3.0,5.0,3.0,6.0,99.0,99.0,5.0,4.0,5.0,1.0,5.0,99.0,6.0,3.0,3.0,3.0,4.0,99.0,5.0,99.0,6.0,6.0,5.0,3.0,3.0,6.0,4.0,,4.0,5.0,4.0,4.0,5.0,4.0,5.0,5.0,5.0,4.0,4.0,5.0,3.0,4.0,3.0,4.0,3.0,3.0,5.0,4.0,3.0,4.0,3.0,4.0,1.0,5.0,,5.0,4.0,4.0,4.0,4.0,2.0,,3.7,3.0,4.666667,3.666667,6.0,4.333333,2.666667,4.5
108106,1292,2020-03-30 10:48:01,ZH-T,33,Female,PhD/Doctorate,PhD/Doctorate,Student,United States,yes,<U+5FB7><U+5DDE>,Single,0.0,No,Life carries on with minor changes,1.0,0.0,Program A,,No,4.0,3.0,4.0,3.0,2.0,4.0,3.0,3.0,4.0,4.0,4.0,4.0,4.0,5.0,7.0,2.0,2.0,2.0,2.0,2.0,1.0,4.0,5.0,5.0,6.0,6.0,0.0,5.0,5.0,5.0,4.0,1.0,6.0,5.0,5.0,4.0,4.0,5.0,4.0,4.0,5.0,5.0,2.0,5.0,5.0,5.0,5.0,5.0,5.0,5.0,99.0,5.0,5.0,6.0,2.0,5.0,99.0,5.0,4.0,6.0,99.0,6.0,5.0,5.0,2.0,4.0,5.0,3.0,5.0,2.0,6.0,5.0,,5.0,4.0,2.0,4.0,5.0,4.0,5.0,5.0,5.0,5.0,5.0,5.0,5.0,4.0,5.0,4.0,2.0,2.0,5.0,4.0,5.0,4.0,2.0,4.0,2.0,5.0,,2.0,5.0,5.0,5.0,5.0,2.0,,3.6,4.0,4.333333,4.0,4.666667,5.0,4.0,4.4
108119,1146,2020-03-31 10:43:35,EN,28,Female,"College degree, bachelor, master",College degree,Part time employed,United States,no,Arkansas,Single,0.0,Yes,Isolated,0.0,0.0,,Program C,No,3.0,2.0,3.0,4.0,4.0,2.0,3.0,3.0,3.0,1.0,1.0,2.0,1.0,7.0,10.0,4.0,3.0,5.0,4.0,10.0,0.0,6.0,6.0,6.0,6.0,6.0,0.0,5.0,5.0,6.0,1.0,5.0,4.0,5.0,5.0,5.0,6.0,5.0,4.0,6.0,6.0,6.0,1.0,4.0,5.0,5.0,2.0,6.0,,,,,,,,,,,,,,,,,,,,,,,,,,,,,,,,,,,,,,,,,,,,,,,,,,,,,,,,,,,,2.4,1.333333,4.0,4.666667,6.0,5.0,5.333333,
108123,678,2020-03-30 10:34:21,EN,62,Female,"College degree, bachelor, master",Up to 12 years of school,Full time employed,United States,no,Pittsburgh,Married/cohabiting,2.0,Yes,Isolated,1.0,0.0,,Program D,No,4.0,4.0,5.0,2.0,2.0,4.0,4.0,1.0,5.0,3.0,5.0,4.0,5.0,7.0,10.0,1.0,5.0,4.0,4.0,9.0,0.0,6.0,6.0,6.0,6.0,6.0,1.0,6.0,6.0,6.0,6.0,5.0,3.0,4.0,3.0,6.0,6.0,6.0,3.0,6.0,6.0,4.0,1.0,5.0,6.0,5.0,3.0,6.0,3.0,6.0,99.0,99.0,5.0,5.0,99.0,5.0,99.0,3.0,5.0,,6.0,5.0,5.0,5.0,99.0,5.0,5.0,99.0,5.0,2.0,6.0,5.0,,4.0,4.0,4.0,4.0,4.0,4.0,4.0,4.0,4.0,3.0,2.0,4.0,6.0,2.0,6.0,6.0,1.0,1.0,4.0,2.0,4.0,3.0,6.0,3.0,4.0,4.0,,2.0,5.0,5.0,4.0,6.0,1.0,,4.0,4.666667,2.666667,5.333333,5.333333,5.666667,5.0,3.9
108124,209,2020-03-31 10:26:26,EN,47,Female,"College degree, bachelor, master",College degree,Full time employed,United States,no,Washington,Married/cohabiting,1.0,Yes,Isolated,3.0,1.0,,Program D,,,,,,,,,,,,,,,,,,,,,,,,,,,,,,,,,,,,,,,,,,,,,,,,,,,,,,,,,,,,,,,,,,,,,,,,,,,,,,,,,,,,,,,,,,,,,,,,,,,,,,,,,,,,,,,,,,,,
108136,499,2020-03-31 10:30:45,EN,32,Female,"College degree, bachelor, master",Some College or equivalent,Full time employed,United States,yes,Georgia,Married/cohabiting,2.0,No,Life carries on with minor changes,2.0,2.0,Program A,,No,2.0,2.0,3.0,5.0,4.0,2.0,5.0,4.0,2.0,2.0,2.0,2.0,3.0,8.0,7.0,6.0,6.0,6.0,10.0,5.0,3.0,4.0,4.0,6.0,6.0,6.0,3.0,,,,,,,,,,,,,,,,,,,,,,,,,,,,,,,,,,,,,,,,,,,,,,,,,,,,,,,,,,,,,,,,,,,,,,,,,,,,,,,,,1.9,2.333333,,,,,,
108143,16005,2020-03-30 14:48:10,EN,30,Male,PhD/Doctorate,Up to 12 years of school,Student,United States,yes,New York,Single,0.0,No,Life carries on with minor changes,0.0,0.0,,,,1.0,1.0,1.0,5.0,4.0,1.0,5.0,5.0,1.0,1.0,2.0,1.0,1.0,1.0,5.0,3.0,2.0,2.0,1.0,6.0,2.0,6.0,6.0,6.0,6.0,5.0,1.0,6.0,6.0,6.0,1.0,3.0,5.0,4.0,2.0,6.0,4.0,1.0,5.0,3.0,2.0,1.0,1.0,6.0,6.0,4.0,1.0,5.0,3.0,3.0,99.0,6.0,6.0,2.0,4.0,99.0,99.0,6.0,1.0,4.0,5.0,5.0,2.0,2.0,2.0,1.0,4.0,2.0,4.0,3.0,4.0,1.0,,6.0,5.0,5.0,6.0,6.0,6.0,6.0,6.0,5.0,6.0,4.0,1.0,4.0,1.0,4.0,4.0,5.0,1.0,1.0,5.0,4.0,5.0,5.0,5.0,5.0,4.0,,1.0,5.0,6.0,3.0,4.0,5.0,,1.1,1.333333,2.333333,2.333333,2.0,6.0,5.0,5.7
108148,2361,2020-03-30 11:00:12,EN,70,Male,PhD/Doctorate,College degree,Retired,United States,no,New York,Married/cohabiting,,Yes,Isolated,1.0,0.0,,Program D,No,4.0,4.0,3.0,3.0,3.0,2.0,4.0,3.0,5.0,2.0,2.0,3.0,3.0,8.0,9.0,2.0,2.0,9.0,1.0,7.0,1.0,6.0,6.0,6.0,6.0,6.0,0.0,5.0,6.0,6.0,4.0,4.0,6.0,5.0,3.0,4.0,3.0,2.0,5.0,5.0,5.0,5.0,2.0,4.0,4.0,4.0,2.0,5.0,6.0,3.0,99.0,5.0,6.0,6.0,2.0,2.0,99.0,6.0,6.0,6.0,6.0,6.0,99.0,3.0,5.0,2.0,4.0,5.0,5.0,2.0,5.0,6.0,,5.0,4.0,5.0,5.0,5.0,4.0,5.0,5.0,5.0,5.0,1.0,5.0,5.0,4.0,5.0,5.0,2.0,2.0,2.0,4.0,4.0,4.0,5.0,5.0,4.0,,,5.0,5.0,4.0,5.0,5.0,2.0,"Significant loss of pension funds tied to Wall Street causes considerable anxiety. Frustration with having a narcissistic sociopathic idiot running the country causes considerable anxiety, anger, and feelings of helplessness.Lack of an organized left to push for needed structural reforms post-virus, e.g universal health care, housing, income, education contributes to anxiety, depression.",3.1,2.666667,3.666667,2.333333,5.0,4.333333,4.666667,4.8
108153,544,2020-03-30 10:29:32,ZH-T,29,Female,PhD/Doctorate,College degree,Full time employed,United States,yes,California,Single,0.0,Yes,Isolated,4.0,0.0,,Program D,No,2.0,3.0,3.0,3.0,1.0,2.0,4.0,1.0,1.0,2.0,3.0,1.0,1.0,6.0,9.0,4.0,2.0,6.0,3.0,,7.0,2.0,4.0,5.0,6.0,6.0,5.0,5.0,6.0,5.0,4.0,3.0,6.0,4.0,4.0,5.0,2.0,4.0,5.0,5.0,5.0,5.0,2.0,6.0,6.0,2.0,6.0,4.0,4.0,5.0,99.0,6.0,6.0,2.0,99.0,6.0,99.0,6.0,5.0,5.0,5.0,4.0,6.0,2.0,5.0,4.0,5.0,5.0,6.0,4.0,4.0,4.0,,4.0,2.0,4.0,2.0,5.0,4.0,5.0,4.0,1.0,5.0,4.0,2.0,2.0,5.0,5.0,3.0,2.0,4.0,2.0,3.0,4.0,2.0,5.0,2.0,2.0,4.0,,6.0,2.0,4.0,5.0,5.0,2.0,,2.8,1.666667,3.333333,2.666667,5.0,5.666667,2.333333,3.6
108159,1182,2020-03-30 10:39:01,EN,69,Female,"College degree, bachelor, master",Some College or equivalent,Retired,United States,no,MD,Married/cohabiting,1.0,Yes,Isolated,1.0,0.0,,Program D,No,3.0,3.0,3.0,4.0,4.0,1.0,4.0,4.0,3.0,2.0,3.0,3.0,3.0,6.0,8.0,6.0,8.0,8.0,8.0,8.0,7.0,6.0,6.0,6.0,6.0,6.0,4.0,4.0,5.0,5.0,1.0,2.0,4.0,5.0,2.0,5.0,5.0,3.0,5.0,5.0,5.0,2.0,4.0,5.0,5.0,6.0,2.0,5.0,6.0,3.0,99.0,99.0,3.0,2.0,2.0,2.0,99.0,6.0,4.0,4.0,4.0,4.0,99.0,3.0,99.0,3.0,2.0,99.0,4.0,2.0,4.0,99.0,,6.0,6.0,6.0,6.0,6.0,6.0,6.0,6.0,5.0,6.0,5.0,3.0,6.0,4.0,5.0,4.0,2.0,2.0,5.0,6.0,4.0,5.0,3.0,6.0,6.0,4.0,,4.0,4.0,4.0,4.0,4.0,2.0,As a nurse I believe my knowledge about transmission of virus has helped me in comprehending all that is being brought to our attention. Misinformation is out there. 6ft away is not enough. FEMA states 10 ft. Recommendations should be accurate. False sense of protection caused by use of gloves and masks.,2.3,3.0,3.0,3.333333,4.0,4.333333,5.333333,5.9
108161,1985,2020-03-30 10:52:07,ZH-T,29,Female,PhD/Doctorate,Up to 12 years of school,Full time employed,United States,yes,,Married/cohabiting,0.0,Yes,Life carries on with minor changes,1.0,0.0,Program A,,Yes,4.0,4.0,4.0,3.0,1.0,3.0,2.0,2.0,4.0,4.0,2.0,2.0,5.0,5.0,8.0,7.0,7.0,5.0,7.0,0.0,5.0,5.0,5.0,5.0,6.0,5.0,4.0,4.0,4.0,4.0,5.0,5.0,5.0,4.0,4.0,3.0,5.0,5.0,3.0,3.0,4.0,4.0,4.0,4.0,4.0,5.0,5.0,4.0,4.0,4.0,99.0,4.0,6.0,5.0,99.0,4.0,99.0,6.0,5.0,6.0,4.0,5.0,4.0,4.0,5.0,4.0,6.0,5.0,5.0,4.0,6.0,5.0,,5.0,4.0,4.0,5.0,5.0,4.0,5.0,5.0,3.0,5.0,4.0,3.0,3.0,3.0,3.0,3.0,3.0,3.0,3.0,3.0,4.0,4.0,3.0,3.0,3.0,4.0,,2.0,3.0,3.0,3.0,4.0,2.0,,3.9,3.0,4.0,4.666667,3.666667,3.666667,3.666667,4.5
108165,496,2020-03-30 10:26:21,ZH-T,35,Male,PhD/Doctorate,PhD/Doctorate,Full time employed,United States,yes,Boston,Single,0.0,Yes,Isolated,3.0,0.0,Program A,,,3.0,3.0,2.0,4.0,2.0,2.0,3.0,2.0,3.0,2.0,3.0,3.0,2.0,7.0,6.0,5.0,7.0,3.0,1.0,0.0,5.0,4.0,4.0,1.0,5.0,3.0,5.0,5.0,4.0,4.0,4.0,4.0,5.0,4.0,5.0,3.0,5.0,5.0,2.0,5.0,6.0,6.0,5.0,5.0,5.0,4.0,4.0,4.0,4.0,5.0,1.0,6.0,4.0,6.0,1.0,5.0,1.0,6.0,5.0,4.0,1.0,1.0,1.0,3.0,4.0,5.0,5.0,5.0,5.0,1.0,6.0,1.0,,4.0,5.0,4.0,4.0,2.0,5.0,4.0,3.0,4.0,5.0,3.0,3.0,3.0,2.0,2.0,5.0,3.0,2.0,3.0,4.0,3.0,2.0,4.0,2.0,2.0,2.0,,4.0,5.0,5.0,4.0,4.0,5.0,,2.8,2.666667,4.333333,5.0,5.666667,4.0,3.666667,4.0
108181,1060,2020-03-30 10:33:41,EN,27,Male,"College degree, bachelor, master",Some College or equivalent,Full time employed,United States,no,GA,Married/cohabiting,1.0,Yes,Life carries on with minor changes,2.0,0.0,,Program C,Not sure,3.0,2.0,3.0,4.0,5.0,2.0,4.0,4.0,1.0,2.0,2.0,2.0,2.0,7.0,10.0,7.0,7.0,6.0,6.0,7.0,6.0,5.0,5.0,5.0,5.0,5.0,4.0,5.0,6.0,6.0,6.0,5.0,6.0,4.0,4.0,3.0,2.0,2.0,4.0,5.0,5.0,4.0,4.0,5.0,6.0,6.0,3.0,6.0,2.0,6.0,5.0,2.0,6.0,3.0,6.0,5.0,2.0,5.0,5.0,6.0,6.0,5.0,3.0,3.0,2.0,2.0,6.0,2.0,5.0,2.0,6.0,5.0,,5.0,5.0,5.0,5.0,5.0,5.0,5.0,5.0,5.0,5.0,2.0,2.0,5.0,1.0,5.0,3.0,5.0,5.0,6.0,5.0,5.0,5.0,5.0,5.0,6.0,5.0,,5.0,4.0,1.0,2.0,5.0,2.0,,2.0,2.0,4.0,2.333333,4.666667,4.666667,5.333333,5.0
108185,781,2020-03-30 10:28:14,ZH-T,29,Female,PhD/Doctorate,Up to 12 years of school,Student,United States,yes,Albany,Single,0.0,No,Isolated,1.0,0.0,Program B,,,2.0,4.0,4.0,2.0,3.0,4.0,2.0,1.0,2.0,3.0,1.0,2.0,2.0,1.0,8.0,0.0,0.0,0.0,0.0,0.0,2.0,6.0,6.0,6.0,6.0,6.0,0.0,4.0,5.0,5.0,2.0,4.0,6.0,4.0,4.0,5.0,2.0,3.0,4.0,5.0,5.0,2.0,2.0,5.0,4.0,5.0,4.0,3.0,2.0,5.0,99.0,6.0,6.0,2.0,1.0,99.0,99.0,6.0,2.0,6.0,6.0,6.0,2.0,1.0,4.0,2.0,2.0,1.0,6.0,6.0,6.0,6.0,,6.0,6.0,6.0,6.0,6.0,6.0,6.0,6.0,6.0,6.0,,,,,,,,,,,,,,,,,<U+4EE5><U+4E0A><U+7684><U+9078><U+9805><U+90FD><U+6709><U+554F><U+984C><U+554A><U+554A>,1.0,2.0,6.0,6.0,5.0,1.0,,3.5,1.666667,3.333333,2.666667,4.0,4.666667,3.666667,6.0
108192,303,2020-03-31 10:19:32,EN,54,Male,"Some College, short continuing education or equivalent",Up to 12 years of school,Full time employed,United States,no,North Carolina,Married/cohabiting,1.0,Yes,Life carries on with minor changes,2.0,0.0,,Program C,No,3.0,2.0,4.0,4.0,4.0,2.0,5.0,4.0,3.0,2.0,2.0,2.0,3.0,,,,,,,,,,,,,,,,,,,,,,,,,,,,,,,,,,,,,,,,,,,,,,,,,,,,,,,,,,,,,,,,,,,,,,,,,,,,,,,,,,,,,,,,,,,,,,,2.3,2.333333,,,,,,
108197,2554,2020-03-30 10:55:57,EN,67,Male,"College degree, bachelor, master",Up to 12 years of school,Retired,United States,no,North Dakota,Married/cohabiting,1.0,Yes,Life carries on with minor changes,1.0,0.0,,,,2.0,1.0,2.0,5.0,4.0,1.0,5.0,5.0,1.0,1.0,2.0,2.0,2.0,8.0,9.0,6.0,8.0,8.0,9.0,8.0,7.0,5.0,6.0,6.0,6.0,6.0,4.0,5.0,4.0,3.0,2.0,4.0,2.0,3.0,2.0,5.0,3.0,2.0,4.0,3.0,5.0,2.0,2.0,5.0,6.0,4.0,2.0,5.0,99.0,99.0,99.0,99.0,2.0,4.0,5.0,2.0,99.0,5.0,2.0,4.0,4.0,4.0,99.0,4.0,2.0,2.0,4.0,4.0,4.0,2.0,4.0,99.0,,5.0,5.0,5.0,5.0,5.0,5.0,5.0,5.0,5.0,6.0,5.0,4.0,4.0,,4.0,2.0,1.0,1.0,5.0,4.0,3.0,4.0,,4.0,5.0,5.0,,5.0,4.0,4.0,2.0,2.0,3.0,,1.3,2.0,2.333333,2.666667,3.333333,5.333333,4.666667,5.1
108206,989,2020-03-30 10:27:53,EN,46,Male,"College degree, bachelor, master",Up to 12 years of school,Self-employed,United States,no,Michigan,Married/cohabiting,0.0,Yes,Isolated,1.0,0.0,,Program C,No,3.0,4.0,5.0,2.0,3.0,3.0,3.0,3.0,4.0,3.0,2.0,2.0,2.0,3.0,7.0,0.0,3.0,3.0,1.0,4.0,0.0,5.0,5.0,5.0,5.0,5.0,0.0,2.0,6.0,5.0,2.0,2.0,4.0,5.0,6.0,2.0,2.0,2.0,5.0,2.0,6.0,2.0,5.0,4.0,5.0,5.0,4.0,3.0,6.0,99.0,99.0,5.0,5.0,2.0,99.0,6.0,99.0,6.0,3.0,6.0,6.0,6.0,5.0,3.0,2.0,2.0,3.0,2.0,4.0,2.0,6.0,5.0,,5.0,5.0,5.0,5.0,5.0,5.0,5.0,5.0,5.0,5.0,1.0,4.0,4.0,4.0,4.0,2.0,1.0,2.0,3.0,4.0,4.0,5.0,3.0,4.0,2.0,5.0,,1.0,6.0,5.0,4.0,1.0,1.0,,3.5,2.0,5.333333,2.0,3.333333,3.666667,3.666667,5.0
108210,547,2020-03-30 10:19:08,EN,30,Female,"College degree, bachelor, master",College degree,Self-employed,United States,no,Washington,Married/cohabiting,0.0,Yes,Isolated,1.0,0.0,Program A,,No,3.0,4.0,5.0,3.0,1.0,4.0,3.0,2.0,3.0,4.0,3.0,3.0,5.0,4.0,7.0,1.0,3.0,5.0,5.0,6.0,1.0,5.0,6.0,5.0,5.0,6.0,0.0,4.0,5.0,5.0,4.0,2.0,2.0,6.0,6.0,4.0,3.0,2.0,5.0,5.0,6.0,5.0,4.0,4.0,5.0,3.0,4.0,5.0,6.0,6.0,99.0,6.0,5.0,5.0,99.0,5.0,99.0,4.0,5.0,5.0,6.0,6.0,1.0,2.0,2.0,5.0,5.0,5.0,4.0,2.0,5.0,2.0,,6.0,5.0,4.0,5.0,6.0,4.0,4.0,6.0,5.0,5.0,1.0,2.0,6.0,1.0,4.0,3.0,6.0,3.0,5.0,5.0,2.0,4.0,5.0,6.0,2.0,2.0,,5.0,5.0,5.0,5.0,5.0,2.0,,3.8,3.666667,5.0,2.333333,5.333333,4.0,3.666667,5.0
108222,649,2020-03-30 10:19:34,EN,27,Female,"College degree, bachelor, master",PhD/Doctorate,Part time employed,United States,yes,Florida,Single,0.0,Yes,Isolated,3.0,0.0,Program B,,No,3.0,3.0,3.0,3.0,4.0,1.0,4.0,4.0,3.0,2.0,5.0,5.0,5.0,6.0,9.0,5.0,6.0,7.0,3.0,5.0,7.0,5.0,6.0,6.0,5.0,5.0,6.0,6.0,5.0,5.0,5.0,3.0,5.0,6.0,3.0,3.0,4.0,5.0,4.0,5.0,5.0,6.0,4.0,3.0,5.0,4.0,5.0,5.0,6.0,5.0,99.0,6.0,99.0,6.0,99.0,6.0,99.0,6.0,5.0,5.0,2.0,5.0,3.0,4.0,99.0,5.0,6.0,3.0,4.0,1.0,6.0,99.0,,5.0,5.0,6.0,5.0,6.0,5.0,6.0,6.0,5.0,6.0,4.0,5.0,5.0,6.0,5.0,5.0,1.0,1.0,5.0,4.0,5.0,5.0,5.0,6.0,1.0,4.0,,6.0,4.0,4.0,1.0,5.0,2.0,,2.4,5.0,4.333333,4.0,5.333333,3.666667,3.666667,5.5
108231,411,2020-03-31 10:12:49,EN,24,Female,"College degree, bachelor, master",College degree,Part time employed,United States,yes,TX,Single,0.0,Yes,Isolated,3.0,1.0,Program A,,No,3.0,3.0,4.0,4.0,3.0,3.0,4.0,3.0,3.0,3.0,2.0,1.0,2.0,5.0,7.0,1.0,3.0,1.0,1.0,2.0,1.0,2.0,,2.0,,6.0,0.0,5.0,5.0,4.0,4.0,2.0,4.0,,,,,,,,,,,,,,,,,,,,,,,,,,,,,,,,,,,,,,,,,,,,,,,,,,,,,,,,,,,,,,,,,,,,,,,,,,,2.9,1.666667,,,,,,
108248,2565,2020-03-30 10:45:52,EN,40,Female,PhD/Doctorate,Some College or equivalent,Full time employed,United States,no,MI,Married/cohabiting,2.0,Yes,Isolated,1.0,2.0,Program A,,Yes,3.0,4.0,3.0,4.0,4.0,2.0,3.0,3.0,2.0,1.0,1.0,2.0,3.0,7.0,10.0,7.0,8.0,9.0,8.0,9.0,7.0,2.0,5.0,5.0,6.0,6.0,1.0,6.0,5.0,5.0,3.0,5.0,4.0,5.0,2.0,4.0,4.0,4.0,4.0,4.0,4.0,4.0,5.0,5.0,4.0,5.0,1.0,6.0,2.0,5.0,3.0,1.0,4.0,5.0,1.0,4.0,2.0,4.0,5.0,6.0,6.0,6.0,4.0,4.0,2.0,2.0,3.0,3.0,4.0,3.0,4.0,2.0,,6.0,6.0,6.0,6.0,6.0,6.0,6.0,6.0,6.0,6.0,4.0,4.0,4.0,1.0,4.0,5.0,2.0,2.0,4.0,4.0,2.0,5.0,3.0,2.0,2.0,3.0,,3.0,4.0,3.0,3.0,4.0,3.0,,2.5,2.0,3.333333,3.666667,4.0,3.666667,5.666667,6.0
108253,1114,2020-03-30 10:20:39,EN,30,Male,"Some College, short continuing education or equivalent",Up to 12 years of school,Self-employed,United States,no,Michigan,Married/cohabiting,0.0,Yes,Life carries on with minor changes,4.0,0.0,,Program D,No,3.0,1.0,3.0,5.0,3.0,1.0,4.0,4.0,1.0,1.0,1.0,,1.0,3.0,9.0,5.0,7.0,7.0,8.0,7.0,9.0,3.0,4.0,4.0,4.0,5.0,5.0,5.0,6.0,6.0,1.0,2.0,4.0,4.0,2.0,6.0,3.0,2.0,5.0,5.0,5.0,6.0,4.0,5.0,5.0,5.0,4.0,5.0,1.0,1.0,99.0,1.0,1.0,1.0,1.0,3.0,99.0,2.0,1.0,4.0,1.0,1.0,99.0,,1.0,1.0,1.0,99.0,1.0,1.0,1.0,1.0,,5.0,5.0,4.0,5.0,6.0,6.0,5.0,5.0,5.0,6.0,4.0,5.0,3.0,1.0,1.0,2.0,3.0,6.0,3.0,2.0,4.0,2.0,1.0,4.0,1.0,4.0,"I don't have co-workers, so with my answers regarding colleagues I chose ""strongly disagree"" where I wish I had been able to select nothing, or N\A.",2.0,4.0,4.0,2.0,2.0,2.0,,1.8,1.0,2.333333,2.333333,5.333333,4.333333,4.333333,5.2
108265,7092,2020-03-30 11:58:35,EN,33,Male,PhD/Doctorate,College degree,Full time employed,United States,yes,Minnesota,Married/cohabiting,0.0,Yes,Isolated,1.0,0.0,,Program D,No,3.0,3.0,2.0,3.0,3.0,3.0,3.0,2.0,2.0,2.0,3.0,2.0,3.0,3.0,7.0,2.0,3.0,4.0,3.0,3.0,3.0,4.0,5.0,4.0,6.0,6.0,1.0,5.0,5.0,6.0,4.0,5.0,3.0,4.0,3.0,4.0,5.0,3.0,4.0,4.0,3.0,4.0,3.0,4.0,4.0,5.0,3.0,4.0,2.0,4.0,99.0,5.0,4.0,4.0,99.0,3.0,99.0,5.0,4.0,3.0,3.0,4.0,4.0,4.0,2.0,4.0,4.0,2.0,3.0,2.0,4.0,3.0,,4.0,4.0,4.0,5.0,5.0,4.0,4.0,5.0,4.0,4.0,4.0,5.0,5.0,6.0,4.0,4.0,4.0,4.0,4.0,3.0,4.0,3.0,4.0,5.0,6.0,3.0,,4.0,4.0,6.0,4.0,4.0,3.0,,2.8,2.666667,3.333333,3.666667,3.666667,4.0,4.333333,4.3
108278,655,2020-03-30 10:09:36,EN,42,Male,"College degree, bachelor, master",Up to 12 years of school,Student,United States,yes,Michigan,Married/cohabiting,3.0,Yes,Life carries on with minor changes,1.0,2.0,Program A,,Not sure,2.0,2.0,2.0,4.0,3.0,2.0,3.0,3.0,2.0,2.0,2.0,2.0,3.0,8.0,9.0,5.0,5.0,6.0,6.0,5.0,5.0,5.0,5.0,5.0,6.0,6.0,3.0,4.0,6.0,6.0,3.0,4.0,4.0,4.0,2.0,3.0,5.0,4.0,3.0,5.0,4.0,3.0,2.0,4.0,5.0,5.0,3.0,5.0,6.0,4.0,6.0,6.0,4.0,4.0,4.0,5.0,4.0,6.0,5.0,4.0,6.0,6.0,3.0,2.0,4.0,3.0,4.0,3.0,6.0,2.0,5.0,6.0,,5.0,5.0,6.0,6.0,6.0,6.0,6.0,6.0,5.0,6.0,5.0,6.0,5.0,5.0,5.0,5.0,5.0,5.0,5.0,5.0,5.0,6.0,5.0,4.0,6.0,6.0,,5.0,5.0,5.0,5.0,5.0,3.0,,2.3,2.333333,3.333333,4.333333,4.0,4.666667,4.666667,5.7
108293,2387,2020-03-31 10:36:49,EN,45,Female,"Some College, short continuing education or equivalent",College degree,Retired,United States,no,Texas,Single,0.0,Not sure,Life carries on with minor changes,0.0,0.0,,Program D,No,3.0,5.0,4.0,3.0,3.0,3.0,3.0,2.0,3.0,4.0,3.0,3.0,4.0,3.0,8.0,4.0,6.0,7.0,5.0,8.0,6.0,4.0,6.0,4.0,6.0,6.0,4.0,5.0,5.0,5.0,1.0,4.0,2.0,6.0,5.0,3.0,3.0,2.0,5.0,6.0,6.0,5.0,5.0,5.0,5.0,6.0,2.0,3.0,,,,,,,,,,,,,,,,,,,,,,,,,,,,,,,,,,,,,,,,,,,,,,,,,,,,,,,,,,,,3.5,3.333333,5.0,2.333333,5.666667,4.0,4.666667,
108305,6577,2020-03-30 11:44:20,EN,21,Female,"Some College, short continuing education or equivalent",College degree,Student,United States,no,TX,Single,0.0,Yes,Life carries on with minor changes,2.0,0.0,,Program C,No,5.0,4.0,5.0,4.0,3.0,4.0,3.0,4.0,5.0,3.0,2.0,4.0,4.0,5.0,8.0,2.0,4.0,5.0,9.0,9.0,0.0,6.0,6.0,6.0,4.0,4.0,1.0,5.0,5.0,4.0,3.0,2.0,6.0,5.0,4.0,4.0,4.0,1.0,6.0,4.0,4.0,4.0,2.0,4.0,5.0,6.0,1.0,6.0,5.0,,5.0,6.0,6.0,5.0,3.0,3.0,99.0,5.0,4.0,6.0,6.0,5.0,4.0,4.0,2.0,4.0,5.0,4.0,6.0,4.0,5.0,3.0,,5.0,5.0,4.0,6.0,6.0,4.0,6.0,6.0,5.0,6.0,3.0,6.0,6.0,4.0,6.0,6.0,1.0,1.0,6.0,2.0,4.0,2.0,4.0,4.0,4.0,4.0,,2.0,4.0,3.0,2.0,4.0,3.0,,3.6,3.333333,4.0,2.0,4.0,4.666667,6.0,5.3
108309,807,2020-03-30 10:07:47,EN,23,Female,"College degree, bachelor, master",Up to 9 years of school,Student,United States,yes,Texas,Single,0.0,Yes,Isolated,1.0,1.0,Program A,,No,5.0,4.0,4.0,3.0,2.0,3.0,2.0,3.0,4.0,2.0,5.0,4.0,5.0,6.0,7.0,6.0,8.0,7.0,8.0,8.0,5.0,3.0,5.0,5.0,6.0,6.0,0.0,6.0,6.0,6.0,4.0,1.0,5.0,3.0,5.0,5.0,5.0,1.0,5.0,5.0,5.0,5.0,3.0,5.0,5.0,5.0,5.0,5.0,99.0,6.0,99.0,6.0,2.0,5.0,6.0,6.0,6.0,6.0,3.0,2.0,2.0,6.0,5.0,4.0,99.0,4.0,2.0,5.0,6.0,2.0,6.0,6.0,,5.0,5.0,5.0,5.0,5.0,5.0,5.0,5.0,5.0,5.0,5.0,5.0,5.0,5.0,5.0,5.0,5.0,5.0,5.0,5.0,5.0,5.0,5.0,5.0,5.0,5.0,,5.0,3.0,5.0,4.0,5.0,3.0,,3.6,4.666667,3.333333,2.666667,5.0,4.666667,4.0,5.0
108312,2387,2020-03-30 10:33:53,AR,32,Male,"College degree, bachelor, master",College degree,Full time employed,United States,yes,"Las Vegas, Nevada",Single,0.0,Not sure,Life carries on with minor changes,1.0,0.0,Program A,,Not sure,4.0,1.0,4.0,4.0,3.0,1.0,3.0,5.0,4.0,3.0,5.0,1.0,2.0,1.0,5.0,2.0,2.0,3.0,0.0,0.0,2.0,4.0,6.0,5.0,5.0,5.0,1.0,5.0,6.0,6.0,5.0,5.0,4.0,3.0,4.0,5.0,5.0,4.0,3.0,5.0,6.0,4.0,3.0,4.0,5.0,6.0,4.0,5.0,3.0,5.0,99.0,4.0,2.0,6.0,6.0,2.0,99.0,6.0,3.0,4.0,1.0,4.0,4.0,2.0,5.0,3.0,1.0,4.0,5.0,3.0,5.0,6.0,,4.0,4.0,3.0,4.0,4.0,4.0,5.0,4.0,4.0,5.0,4.0,5.0,5.0,2.0,5.0,4.0,4.0,5.0,5.0,4.0,5.0,4.0,5.0,4.0,6.0,4.0,,5.0,5.0,5.0,5.0,5.0,4.0,<U+0627><U+0644><U+0627><U+0639><U+062A><U+0645><U+0627><U+062F> <U+0627><U+0644><U+0643><U+0644><U+0649> <U+0639><U+0644><U+064A> <U+0627><U+0644><U+0625><U+0646><U+062A><U+0631><U+0646><U+062A>,2.6,2.666667,3.0,4.333333,5.0,4.333333,4.666667,4.1
108313,2614,2020-03-30 10:37:34,EN,37,Female,PhD/Doctorate,College degree,Full time employed,United States,yes,"Minneapolis, Minnesota",Divorced/widowed,0.0,Yes,Isolated,1.0,0.0,Program A,,,3.0,2.0,3.0,4.0,2.0,4.0,4.0,2.0,2.0,2.0,1.0,1.0,2.0,7.0,9.0,5.0,5.0,5.0,6.0,3.0,4.0,4.0,5.0,4.0,6.0,6.0,3.0,4.0,6.0,6.0,2.0,4.0,5.0,4.0,4.0,5.0,5.0,5.0,3.0,4.0,5.0,4.0,2.0,5.0,5.0,5.0,4.0,5.0,3.0,4.0,99.0,4.0,3.0,3.0,99.0,4.0,99.0,5.0,5.0,5.0,4.0,5.0,4.0,3.0,4.0,3.0,4.0,3.0,5.0,3.0,5.0,5.0,,4.0,4.0,4.0,4.0,4.0,4.0,4.0,4.0,4.0,4.0,3.0,3.0,4.0,3.0,4.0,2.0,4.0,4.0,4.0,5.0,4.0,4.0,3.0,4.0,3.0,3.0,,4.0,3.0,4.0,4.0,4.0,3.0,,2.8,1.333333,3.333333,4.666667,4.333333,5.0,4.333333,4.0
108314,877,2020-03-30 10:08:37,EN,23,Female,"Some College, short continuing education or equivalent",College degree,Student,United States,no,Texas,Single,0.0,Yes,Isolated,0.0,0.0,,Program D,No,2.0,4.0,2.0,4.0,1.0,5.0,2.0,2.0,4.0,5.0,5.0,5.0,5.0,6.0,8.0,2.0,1.0,1.0,1.0,5.0,0.0,5.0,6.0,5.0,5.0,5.0,1.0,5.0,4.0,5.0,3.0,1.0,2.0,4.0,3.0,3.0,6.0,6.0,2.0,4.0,4.0,5.0,3.0,4.0,5.0,4.0,6.0,5.0,6.0,99.0,1.0,99.0,5.0,99.0,2.0,1.0,1.0,3.0,3.0,99.0,99.0,6.0,99.0,99.0,5.0,99.0,6.0,1.0,5.0,3.0,3.0,3.0,,2.0,4.0,4.0,4.0,5.0,5.0,5.0,4.0,4.0,2.0,2.0,1.0,4.0,1.0,4.0,6.0,1.0,1.0,5.0,5.0,5.0,4.0,6.0,5.0,1.0,2.0,,4.0,5.0,5.0,5.0,4.0,2.0,,3.7,5.0,3.666667,5.666667,4.333333,4.333333,3.333333,3.9
108316,3734,2020-03-31 10:56:08,EN,23,Male,"College degree, bachelor, master",PhD/Doctorate,Student,United States,yes,Texas,Single,0.0,Yes,Isolated,1.0,0.0,Program A,,No,2.0,2.0,3.0,4.0,4.0,1.0,4.0,4.0,3.0,1.0,2.0,2.0,2.0,6.0,7.0,4.0,4.0,5.0,1.0,8.0,4.0,2.0,3.0,2.0,5.0,4.0,1.0,5.0,5.0,5.0,1.0,4.0,2.0,3.0,3.0,4.0,4.0,1.0,6.0,5.0,5.0,5.0,3.0,5.0,4.0,4.0,4.0,4.0,,,,,,,,,,,,,,,,,,,,,,,,,,,,,,,,,,,,,,,,,,,,,,,,,,,,,,,,,,,,2.0,2.0,3.0,2.0,5.0,4.333333,3.666667,
108319,13499,2020-03-30 13:38:40,EN,24,Female,"Some College, short continuing education or equivalent",,Student,United States,no,Texas,Single,0.0,Not sure,Life carries on with minor changes,6.0,2.0,Program B,,Yes,2.0,3.0,4.0,3.0,3.0,3.0,3.0,3.0,3.0,3.0,2.0,3.0,4.0,4.0,8.0,4.0,4.0,5.0,4.0,7.0,4.0,5.0,6.0,6.0,5.0,6.0,4.0,3.0,5.0,5.0,3.0,2.0,2.0,4.0,4.0,3.0,5.0,5.0,3.0,3.0,3.0,3.0,4.0,3.0,3.0,4.0,4.0,4.0,6.0,3.0,1.0,4.0,3.0,4.0,3.0,4.0,3.0,4.0,4.0,4.0,2.0,4.0,4.0,3.0,3.0,4.0,4.0,3.0,4.0,3.0,4.0,4.0,,4.0,5.0,5.0,4.0,4.0,4.0,4.0,5.0,4.0,4.0,3.0,4.0,4.0,3.0,4.0,4.0,4.0,4.0,4.0,4.0,4.0,4.0,4.0,4.0,4.0,4.0,,4.0,4.0,4.0,4.0,4.0,3.0,,3.0,3.0,4.0,4.666667,3.0,3.0,3.666667,4.3
108320,644,2020-03-30 10:04:25,EN,21,Female,"College degree, bachelor, master",College degree,Student,United States,no,texas,Single,0.0,Yes,Isolated,2.0,0.0,,Program D,No,3.0,2.0,5.0,3.0,3.0,3.0,2.0,2.0,4.0,3.0,2.0,4.0,5.0,4.0,9.0,0.0,0.0,0.0,1.0,9.0,1.0,5.0,6.0,5.0,6.0,6.0,2.0,2.0,4.0,3.0,1.0,3.0,2.0,6.0,5.0,4.0,5.0,4.0,5.0,4.0,5.0,3.0,3.0,3.0,5.0,5.0,3.0,6.0,6.0,2.0,99.0,6.0,3.0,3.0,99.0,6.0,99.0,6.0,2.0,6.0,6.0,6.0,2.0,1.0,2.0,6.0,6.0,3.0,5.0,3.0,6.0,4.0,,6.0,5.0,6.0,6.0,6.0,6.0,6.0,6.0,6.0,6.0,1.0,6.0,2.0,4.0,4.0,6.0,1.0,1.0,6.0,2.0,3.0,5.0,5.0,6.0,2.0,2.0,,4.0,6.0,6.0,4.0,4.0,2.0,,3.4,3.666667,4.666667,3.666667,4.0,4.0,5.0,5.9
108329,693,2020-03-30 10:03:42,EN,25,Female,"College degree, bachelor, master",College degree,Self-employed,United States,yes,Massachusetts,Married/cohabiting,0.0,Yes,Isolated,1.0,0.0,Program A,,No,3.0,3.0,4.0,4.0,3.0,3.0,3.0,3.0,3.0,3.0,2.0,2.0,2.0,6.0,7.0,4.0,4.0,5.0,2.0,0.0,4.0,5.0,5.0,5.0,5.0,5.0,0.0,4.0,4.0,5.0,2.0,4.0,5.0,4.0,4.0,3.0,3.0,3.0,4.0,4.0,6.0,4.0,3.0,4.0,4.0,3.0,4.0,3.0,4.0,5.0,99.0,6.0,3.0,5.0,1.0,2.0,99.0,1.0,5.0,5.0,6.0,5.0,4.0,4.0,4.0,2.0,4.0,5.0,5.0,4.0,6.0,5.0,,5.0,5.0,5.0,6.0,5.0,5.0,5.0,6.0,5.0,5.0,4.0,4.0,5.0,2.0,5.0,5.0,5.0,5.0,6.0,4.0,5.0,3.0,4.0,5.0,2.0,2.0,,5.0,5.0,5.0,5.0,5.0,2.0,,3.0,2.0,4.0,3.0,4.666667,4.0,3.0,5.2
108332,1132,2020-03-30 10:10:04,ZH-T,32,Female,PhD/Doctorate,PhD/Doctorate,Full time employed,United States,yes,"Washington, DC",Single,0.0,Yes,Isolated,1.0,0.0,Program B,,No,5.0,5.0,4.0,2.0,1.0,5.0,3.0,2.0,5.0,4.0,2.0,1.0,3.0,2.0,7.0,7.0,5.0,5.0,3.0,,2.0,1.0,1.0,1.0,1.0,1.0,7.0,1.0,6.0,6.0,3.0,3.0,6.0,6.0,5.0,3.0,4.0,3.0,4.0,4.0,6.0,3.0,1.0,6.0,6.0,4.0,6.0,6.0,5.0,6.0,99.0,6.0,6.0,6.0,2.0,2.0,99.0,6.0,6.0,6.0,6.0,6.0,4.0,1.0,1.0,2.0,6.0,4.0,6.0,1.0,6.0,4.0,,6.0,6.0,6.0,5.0,2.0,6.0,6.0,3.0,5.0,6.0,1.0,4.0,6.0,4.0,5.0,3.0,6.0,6.0,2.0,3.0,,3.0,4.0,5.0,2.0,4.0,,5.0,2.0,6.0,6.0,6.0,1.0,,4.4,2.0,5.0,3.333333,4.333333,6.0,3.666667,5.1
108335,512,2020-03-31 09:59:45,EN,28,Female,,College degree,Retired,United States,no,Georgia,Married/cohabiting,,Yes,Life carries on as usual,2.0,2.0,,Program D,No,4.0,3.0,3.0,5.0,5.0,3.0,5.0,2.0,3.0,5.0,1.0,3.0,5.0,5.0,5.0,3.0,3.0,5.0,6.0,5.0,3.0,6.0,6.0,5.0,3.0,6.0,3.0,6.0,3.0,4.0,1.0,1.0,2.0,,,,,,,,,,,,,,,,,,,,,,,,,,,,,,,,,,,,,,,,,,,,,,,,,,,,,,,,,,,,,,,,,,,,,,,,,,,2.8,3.0,,,,,,
108340,911,2020-03-30 10:05:39,EN,58,Female,PhD/Doctorate,Up to 12 years of school,Full time employed,United States,no,VA,Married/cohabiting,1.0,Yes,Isolated,2.0,0.0,Program A,,No,2.0,3.0,3.0,4.0,4.0,1.0,5.0,4.0,3.0,1.0,4.0,3.0,5.0,4.0,8.0,5.0,7.0,7.0,3.0,8.0,0.0,6.0,6.0,6.0,6.0,6.0,0.0,5.0,5.0,5.0,3.0,4.0,1.0,5.0,5.0,4.0,5.0,2.0,4.0,4.0,5.0,4.0,2.0,5.0,5.0,3.0,3.0,5.0,2.0,4.0,5.0,4.0,4.0,5.0,2.0,4.0,99.0,5.0,2.0,5.0,5.0,5.0,5.0,2.0,5.0,5.0,4.0,2.0,3.0,2.0,5.0,2.0,,5.0,5.0,5.0,5.0,5.0,5.0,5.0,5.0,5.0,5.0,2.0,5.0,5.0,4.0,5.0,5.0,2.0,2.0,5.0,5.0,2.0,2.0,4.0,5.0,4.0,2.0,,5.0,5.0,4.0,5.0,4.0,5.0,,2.0,4.0,4.333333,3.333333,4.333333,5.0,4.0,5.0
108353,1026,2020-03-30 10:05:29,ZH-T,32,Male,PhD/Doctorate,Up to 12 years of school,Full time employed,United States,yes,Texas,Single,0.0,Yes,Isolated,0.0,0.0,,Program D,No,2.0,1.0,2.0,4.0,3.0,2.0,4.0,4.0,1.0,2.0,4.0,4.0,4.0,5.0,8.0,3.0,2.0,1.0,5.0,,3.0,4.0,6.0,6.0,6.0,4.0,0.0,2.0,6.0,6.0,2.0,3.0,5.0,5.0,5.0,4.0,4.0,5.0,3.0,5.0,6.0,5.0,3.0,5.0,3.0,5.0,5.0,5.0,3.0,3.0,99.0,4.0,4.0,3.0,2.0,99.0,99.0,4.0,5.0,6.0,6.0,6.0,6.0,6.0,2.0,6.0,6.0,4.0,6.0,2.0,4.0,5.0,,4.0,5.0,5.0,5.0,5.0,5.0,5.0,4.0,5.0,4.0,2.0,5.0,5.0,2.0,5.0,5.0,2.0,5.0,5.0,2.0,2.0,4.0,5.0,5.0,2.0,2.0,,3.0,5.0,5.0,4.0,4.0,2.0,,1.9,4.0,4.333333,4.333333,5.333333,4.0,4.0,4.7
108360,938,2020-03-30 10:02:53,EN,44,Female,PhD/Doctorate,College degree,Full time employed,United States,no,PA,Married/cohabiting,2.0,Yes,Isolated,1.0,2.0,,Program C,No,4.0,2.0,4.0,3.0,3.0,3.0,3.0,3.0,4.0,3.0,3.0,4.0,4.0,,8.0,3.0,7.0,9.0,9.0,5.0,8.0,2.0,2.0,2.0,5.0,6.0,5.0,6.0,6.0,6.0,1.0,2.0,5.0,6.0,5.0,4.0,1.0,1.0,6.0,5.0,5.0,6.0,2.0,3.0,5.0,6.0,1.0,6.0,1.0,6.0,1.0,1.0,1.0,1.0,1.0,5.0,6.0,4.0,1.0,2.0,1.0,6.0,6.0,1.0,1.0,6.0,5.0,1.0,4.0,1.0,5.0,1.0,Absorbing mounting hysteria in social media (6),6.0,6.0,6.0,6.0,6.0,6.0,6.0,6.0,6.0,6.0,3.0,4.0,6.0,1.0,6.0,1.0,1.0,1.0,1.0,5.0,2.0,1.0,6.0,4.0,5.0,1.0,,5.0,5.0,5.0,5.0,1.0,1.0,,3.2,3.666667,4.666667,1.0,5.333333,4.333333,6.0,6.0
108381,865,2020-03-30 09:58:01,EN,49,Female,"College degree, bachelor, master",College degree,Full time employed,United States,no,Virginia,Married/cohabiting,2.0,Yes,Life carries on with minor changes,1.0,0.0,,Program D,No,3.0,3.0,5.0,5.0,3.0,4.0,4.0,3.0,4.0,1.0,1.0,1.0,4.0,6.0,9.0,3.0,6.0,5.0,2.0,8.0,,6.0,6.0,6.0,6.0,6.0,0.0,5.0,5.0,5.0,2.0,2.0,2.0,2.0,2.0,5.0,5.0,3.0,5.0,4.0,6.0,2.0,3.0,4.0,5.0,5.0,2.0,5.0,2.0,6.0,6.0,5.0,4.0,5.0,99.0,2.0,99.0,6.0,3.0,6.0,6.0,6.0,99.0,3.0,2.0,4.0,2.0,6.0,5.0,2.0,6.0,2.0,,6.0,5.0,5.0,5.0,5.0,5.0,5.0,6.0,5.0,6.0,1.0,5.0,5.0,5.0,5.0,5.0,2.0,2.0,5.0,3.0,4.0,2.0,2.0,5.0,1.0,4.0,,4.0,3.0,3.0,3.0,4.0,2.0,,2.9,2.0,2.0,3.333333,4.0,4.333333,5.0,5.3
108387,713,2020-03-30 09:54:35,ZH-T,27,Male,PhD/Doctorate,Up to 12 years of school,Student,United States,yes,<U+7D10><U+7D04><U+5DDE>,Single,0.0,No,Life carries on with minor changes,,,,Program D,Yes,5.0,4.0,4.0,2.0,2.0,4.0,3.0,1.0,3.0,4.0,4.0,4.0,4.0,7.0,9.0,6.0,6.0,8.0,10.0,0.0,10.0,5.0,3.0,3.0,3.0,6.0,0.0,5.0,5.0,5.0,1.0,2.0,5.0,6.0,4.0,3.0,6.0,5.0,1.0,5.0,2.0,5.0,5.0,5.0,4.0,4.0,4.0,5.0,2.0,5.0,99.0,3.0,5.0,5.0,6.0,5.0,99.0,3.0,5.0,3.0,2.0,2.0,3.0,3.0,5.0,5.0,5.0,3.0,6.0,2.0,5.0,6.0,,6.0,2.0,4.0,2.0,3.0,5.0,4.0,1.0,5.0,5.0,5.0,5.0,5.0,2.0,4.0,4.0,4.0,2.0,5.0,5.0,3.0,4.0,4.0,5.0,6.0,4.0,,5.0,6.0,5.0,5.0,5.0,3.0,,4.0,4.0,4.666667,5.666667,4.0,3.666667,4.0,3.7
108390,819,2020-03-30 09:56:14,EN,20,Female,"Some College, short continuing education or equivalent",College degree,Student,United States,no,Maryland,Single,0.0,No,Life carries on with minor changes,2.0,0.0,,Program D,No,1.0,2.0,3.0,4.0,3.0,3.0,4.0,2.0,1.0,2.0,1.0,1.0,1.0,4.0,6.0,3.0,4.0,6.0,3.0,4.0,3.0,3.0,4.0,3.0,5.0,5.0,2.0,4.0,4.0,4.0,2.0,2.0,3.0,2.0,2.0,4.0,3.0,2.0,5.0,3.0,5.0,3.0,4.0,4.0,4.0,3.0,6.0,4.0,99.0,5.0,99.0,4.0,4.0,2.0,2.0,2.0,99.0,5.0,4.0,3.0,3.0,3.0,5.0,2.0,99.0,2.0,3.0,2.0,3.0,2.0,4.0,3.0,,5.0,4.0,3.0,4.0,5.0,4.0,5.0,5.0,4.0,5.0,3.0,4.0,4.0,4.0,4.0,4.0,4.0,1.0,5.0,3.0,4.0,4.0,2.0,4.0,2.0,4.0,,3.0,3.0,3.0,3.0,3.0,2.0,,2.3,1.0,2.333333,2.333333,3.666667,3.666667,2.666667,4.4
108396,5652,2020-03-30 11:16:11,EN,20,Female,"Some College, short continuing education or equivalent",Up to 9 years of school,Student,United States,no,NY,Single,0.0,Not sure,Life carries on with minor changes,2.0,0.0,,Program D,Not sure,3.0,3.0,5.0,3.0,4.0,3.0,3.0,2.0,3.0,4.0,4.0,4.0,3.0,3.0,7.0,3.0,3.0,3.0,3.0,3.0,2.0,5.0,6.0,5.0,5.0,5.0,3.0,4.0,5.0,5.0,3.0,1.0,2.0,6.0,5.0,4.0,5.0,4.0,2.0,4.0,5.0,4.0,2.0,2.0,5.0,5.0,4.0,5.0,6.0,6.0,99.0,6.0,4.0,4.0,5.0,5.0,99.0,6.0,4.0,5.0,6.0,3.0,6.0,4.0,3.0,5.0,6.0,4.0,4.0,4.0,6.0,4.0,,5.0,3.0,5.0,5.0,5.0,5.0,5.0,5.0,5.0,5.0,5.0,2.0,2.0,4.0,2.0,3.0,1.0,1.0,6.0,5.0,5.0,5.0,4.0,2.0,4.0,4.0,,5.0,2.0,6.0,2.0,2.0,1.0,People arent taking this seriously nor is the government. I dont think the government understands that some people dont have the money to get through this or get through the economic disaster thats is in our future. Everything is getting expensive and bills are still due. Only one person in my house hold provides for everything and is currently unemployed. We can not pay bills or buy food like this.,3.3,3.666667,4.666667,4.666667,4.333333,4.0,4.333333,4.8
108410,764,2020-03-30 09:52:49,EN,55,Female,PhD/Doctorate,Up to 6 years of school,Full time employed,United States,no,Michigan,Married/cohabiting,1.0,Yes,Isolated,2.0,0.0,,,,3.0,3.0,3.0,3.0,3.0,3.0,4.0,3.0,3.0,2.0,2.0,1.0,3.0,7.0,9.0,0.0,7.0,3.0,7.0,9.0,0.0,6.0,6.0,6.0,6.0,6.0,0.0,5.0,4.0,5.0,4.0,3.0,2.0,3.0,1.0,5.0,4.0,4.0,3.0,4.0,5.0,3.0,2.0,5.0,6.0,5.0,2.0,5.0,2.0,5.0,6.0,5.0,5.0,5.0,99.0,2.0,99.0,6.0,5.0,6.0,6.0,5.0,5.0,5.0,2.0,5.0,5.0,5.0,3.0,2.0,6.0,3.0,,5.0,5.0,5.0,4.0,5.0,4.0,5.0,5.0,4.0,5.0,2.0,5.0,5.0,6.0,5.0,5.0,2.0,2.0,2.0,4.0,5.0,5.0,5.0,3.0,2.0,4.0,,2.0,4.0,2.0,4.0,5.0,4.0,,2.8,2.0,2.0,4.0,4.0,5.333333,5.0,4.7
108428,1460,2020-03-30 10:01:26,EN,62,Female,"College degree, bachelor, master",Up to 12 years of school,Retired,United States,no,North Dakota,Married/cohabiting,0.0,Yes,Life carries on with minor changes,1.0,0.0,,,,3.0,2.0,2.0,5.0,5.0,1.0,5.0,5.0,1.0,1.0,2.0,3.0,3.0,7.0,9.0,6.0,8.0,8.0,8.0,8.0,7.0,5.0,5.0,4.0,5.0,5.0,5.0,5.0,5.0,5.0,2.0,4.0,2.0,3.0,3.0,5.0,3.0,3.0,5.0,3.0,5.0,3.0,1.0,5.0,6.0,5.0,4.0,5.0,2.0,99.0,99.0,2.0,4.0,3.0,6.0,1.0,99.0,5.0,1.0,5.0,4.0,4.0,99.0,6.0,1.0,2.0,5.0,4.0,5.0,1.0,4.0,1.0,,6.0,5.0,6.0,6.0,6.0,5.0,6.0,6.0,5.0,6.0,4.0,5.0,6.0,,5.0,1.0,1.0,1.0,5.0,5.0,4.0,5.0,5.0,4.0,6.0,6.0,,6.0,,2.0,4.0,2.0,4.0,"Connecting with neighbors and seeing families out spending time together and helping one another is very encouraging.  I feel deeply that God is at work in our hearts and communities, and He will help and guide us.",1.4,2.666667,2.666667,2.666667,3.666667,5.666667,4.333333,5.7
108432,1506,2020-03-30 10:01:47,SCU,65,Female,"College degree, bachelor, master",College degree,Retired,United States,yes,Florida,Single,0.0,Yes,Isolated,0.0,0.0,,,,3.0,3.0,3.0,5.0,3.0,1.0,5.0,5.0,3.0,1.0,3.0,3.0,3.0,5.0,5.0,9.0,6.0,5.0,5.0,0.0,9.0,5.0,5.0,4.0,4.0,5.0,8.0,5.0,5.0,5.0,6.0,4.0,4.0,5.0,2.0,5.0,3.0,4.0,5.0,4.0,5.0,4.0,2.0,4.0,4.0,5.0,2.0,4.0,5.0,2.0,5.0,5.0,4.0,2.0,5.0,99.0,99.0,4.0,2.0,5.0,4.0,5.0,2.0,4.0,2.0,4.0,3.0,4.0,2.0,2.0,2.0,5.0,,5.0,5.0,5.0,4.0,5.0,5.0,5.0,5.0,5.0,5.0,5.0,5.0,5.0,2.0,5.0,4.0,1.0,2.0,5.0,5.0,5.0,5.0,5.0,5.0,4.0,5.0,,4.0,4.0,2.0,5.0,4.0,5.0,,2.0,3.0,3.0,3.0,4.333333,4.333333,4.666667,4.9
108443,1310,2020-03-30 09:56:38,EN,40,Male,PhD/Doctorate,Up to 12 years of school,Full time employed,United States,no,Connecticut,Married/cohabiting,3.0,No,Isolated,1.0,3.0,Program A,,No,3.0,2.0,3.0,4.0,4.0,2.0,4.0,4.0,3.0,2.0,1.0,2.0,2.0,7.0,9.0,6.0,8.0,9.0,8.0,6.0,5.0,5.0,5.0,5.0,6.0,6.0,3.0,6.0,6.0,6.0,1.0,5.0,6.0,6.0,5.0,4.0,6.0,4.0,3.0,5.0,6.0,5.0,3.0,5.0,6.0,4.0,2.0,5.0,3.0,1.0,4.0,5.0,2.0,1.0,2.0,1.0,4.0,3.0,1.0,4.0,2.0,6.0,5.0,2.0,2.0,1.0,2.0,2.0,2.0,1.0,2.0,1.0,,6.0,6.0,4.0,6.0,6.0,6.0,6.0,6.0,5.0,6.0,1.0,4.0,5.0,1.0,4.0,5.0,1.0,1.0,4.0,2.0,5.0,2.0,2.0,4.0,2.0,2.0,,2.0,5.0,4.0,5.0,5.0,1.0,,2.3,1.666667,4.666667,4.666667,5.333333,5.0,4.666667,5.7
108445,1552,2020-03-30 10:00:27,SQI,35,Female,"Some College, short continuing education or equivalent",Some College or equivalent,Part time employed,United States,yes,New York,Married/cohabiting,1.0,No,Isolated,2.0,1.0,,,,3.0,1.0,3.0,5.0,3.0,3.0,5.0,1.0,3.0,1.0,1.0,1.0,3.0,5.0,9.0,5.0,7.0,8.0,8.0,7.0,10.0,4.0,5.0,5.0,5.0,5.0,10.0,6.0,6.0,5.0,4.0,4.0,5.0,2.0,2.0,5.0,6.0,5.0,2.0,5.0,6.0,4.0,1.0,6.0,5.0,5.0,1.0,5.0,5.0,2.0,1.0,4.0,1.0,6.0,1.0,2.0,2.0,1.0,99.0,1.0,3.0,6.0,4.0,1.0,2.0,1.0,4.0,5.0,1.0,1.0,6.0,6.0,,5.0,5.0,5.0,5.0,6.0,5.0,5.0,2.0,5.0,5.0,5.0,5.0,5.0,5.0,5.0,5.0,2.0,3.0,5.0,5.0,5.0,5.0,4.0,5.0,6.0,2.0,,5.0,6.0,5.0,5.0,6.0,3.0,,2.4,1.666667,2.0,5.333333,5.0,5.666667,5.333333,4.8
108447,733,2020-03-30 09:46:03,EN,45,Male,"Some College, short continuing education or equivalent",Some College or equivalent,Full time employed,United States,no,California,Divorced/widowed,0.0,No,Life carries on with minor changes,1.0,0.0,Program A,,No,3.0,3.0,4.0,4.0,3.0,3.0,3.0,3.0,3.0,3.0,2.0,2.0,3.0,7.0,9.0,6.0,7.0,8.0,6.0,9.0,7.0,5.0,5.0,5.0,4.0,4.0,4.0,4.0,4.0,3.0,3.0,4.0,2.0,4.0,2.0,4.0,5.0,5.0,3.0,4.0,6.0,4.0,4.0,4.0,4.0,5.0,3.0,4.0,5.0,3.0,2.0,4.0,5.0,5.0,2.0,3.0,2.0,4.0,4.0,5.0,5.0,5.0,2.0,3.0,3.0,4.0,4.0,4.0,4.0,3.0,4.0,3.0,,5.0,5.0,5.0,5.0,5.0,4.0,5.0,5.0,4.0,5.0,3.0,5.0,5.0,4.0,4.0,3.0,5.0,5.0,5.0,4.0,3.0,3.0,3.0,4.0,2.0,4.0,,3.0,5.0,4.0,4.0,3.0,2.0,,3.0,2.333333,3.0,4.666667,4.666667,3.666667,4.333333,4.8
108456,82,2020-03-31 09:44:59,ZH-T,33,Male,PhD/Doctorate,PhD/Doctorate,Full time employed,United States,yes,,Single,0.0,No,Life carries on with minor changes,,,,Program C,,,,,,,,,,,,,,,,,,,,,,,,,,,,,,,,,,,,,,,,,,,,,,,,,,,,,,,,,,,,,,,,,,,,,,,,,,,,,,,,,,,,,,,,,,,,,,,,,,,,,,,,,,,,,,,,,,,,
108458,825,2020-03-30 09:46:07,EN,50,Male,Up to 12 years of school,Up to 12 years of school,Full time employed,United States,no,CA,Married/cohabiting,3.0,Yes,Isolated,1.0,2.0,Program B,,No,3.0,2.0,3.0,4.0,4.0,1.0,4.0,4.0,2.0,2.0,1.0,1.0,2.0,5.0,8.0,1.0,8.0,8.0,9.0,10.0,1.0,4.0,5.0,5.0,6.0,6.0,0.0,6.0,6.0,6.0,1.0,3.0,4.0,3.0,2.0,4.0,5.0,6.0,2.0,5.0,5.0,4.0,2.0,4.0,6.0,4.0,3.0,5.0,2.0,4.0,3.0,3.0,3.0,5.0,1.0,3.0,4.0,5.0,4.0,4.0,5.0,5.0,1.0,5.0,2.0,2.0,3.0,2.0,3.0,2.0,6.0,1.0,,6.0,6.0,6.0,6.0,6.0,6.0,6.0,6.0,4.0,6.0,3.0,1.0,2.0,1.0,4.0,4.0,1.0,1.0,4.0,6.0,5.0,6.0,4.0,3.0,1.0,4.0,,3.0,4.0,3.0,3.0,3.0,2.0,,2.1,1.333333,2.666667,5.333333,4.666667,5.0,4.333333,5.8
108482,1759,2020-03-30 09:58:24,EN,42,Female,"College degree, bachelor, master",Up to 12 years of school,Full time employed,United States,no,Michigan,Married/cohabiting,0.0,No,Life carries on with minor changes,1.0,0.0,,Program D,Yes,1.0,1.0,2.0,5.0,4.0,1.0,5.0,5.0,1.0,1.0,1.0,1.0,1.0,6.0,9.0,1.0,5.0,5.0,2.0,4.0,1.0,6.0,6.0,6.0,5.0,5.0,3.0,6.0,6.0,6.0,5.0,5.0,1.0,4.0,4.0,5.0,5.0,5.0,4.0,5.0,5.0,4.0,2.0,5.0,6.0,5.0,3.0,6.0,99.0,4.0,99.0,5.0,3.0,3.0,2.0,99.0,99.0,3.0,4.0,5.0,5.0,5.0,2.0,5.0,99.0,2.0,3.0,5.0,4.0,99.0,5.0,2.0,,6.0,6.0,6.0,6.0,6.0,6.0,6.0,6.0,6.0,6.0,5.0,5.0,5.0,4.0,6.0,2.0,1.0,1.0,5.0,5.0,5.0,6.0,6.0,6.0,5.0,2.0,,5.0,4.0,3.0,3.0,5.0,5.0,,1.2,1.0,3.333333,4.333333,4.666667,5.333333,5.0,6.0
108485,644,2020-03-30 09:39:14,EN,22,Female,"Some College, short continuing education or equivalent",College degree,Student,United States,no,Florida,Single,0.0,No,Isolated,1.0,0.0,,Program C,No,2.0,2.0,1.0,5.0,3.0,2.0,5.0,3.0,4.0,2.0,3.0,4.0,4.0,4.0,8.0,5.0,4.0,5.0,8.0,10.0,7.0,6.0,6.0,6.0,6.0,4.0,5.0,6.0,6.0,6.0,1.0,4.0,1.0,6.0,2.0,6.0,6.0,1.0,6.0,6.0,6.0,5.0,2.0,5.0,4.0,4.0,6.0,4.0,4.0,2.0,99.0,5.0,1.0,4.0,1.0,6.0,99.0,6.0,4.0,6.0,6.0,1.0,4.0,1.0,1.0,3.0,1.0,1.0,6.0,1.0,4.0,1.0,,6.0,6.0,4.0,6.0,6.0,6.0,6.0,6.0,6.0,6.0,6.0,6.0,6.0,1.0,1.0,3.0,6.0,6.0,5.0,3.0,1.0,6.0,3.0,6.0,4.0,6.0,,6.0,6.0,6.0,6.0,6.0,1.0,,2.1,3.666667,3.0,2.666667,5.666667,4.666667,3.0,5.8
108498,967,2020-03-30 09:42:09,EN,47,Male,"College degree, bachelor, master",PhD/Doctorate,Full time employed,United States,no,North Carolina,Married/cohabiting,2.0,Yes,Isolated,2.0,1.0,,Program D,No,3.0,3.0,4.0,4.0,3.0,4.0,4.0,2.0,3.0,3.0,1.0,2.0,3.0,6.0,9.0,3.0,3.0,7.0,7.0,9.0,1.0,2.0,5.0,2.0,6.0,6.0,0.0,5.0,5.0,5.0,2.0,3.0,3.0,3.0,2.0,5.0,5.0,4.0,4.0,4.0,6.0,5.0,2.0,5.0,4.0,5.0,6.0,5.0,1.0,6.0,5.0,4.0,4.0,2.0,99.0,2.0,5.0,6.0,1.0,5.0,5.0,6.0,1.0,1.0,5.0,2.0,5.0,6.0,1.0,1.0,5.0,1.0,,6.0,6.0,5.0,6.0,6.0,6.0,6.0,6.0,6.0,6.0,2.0,5.0,5.0,1.0,4.0,6.0,1.0,1.0,4.0,3.0,3.0,4.0,4.0,5.0,1.0,5.0,,2.0,6.0,5.0,3.0,6.0,2.0,,3.1,2.0,2.333333,4.0,5.0,4.666667,3.666667,5.9
108501,124,2020-03-31 09:40:18,EN,30,Female,"Some College, short continuing education or equivalent",College degree,Not employed,United States,no,Washington,Married/cohabiting,3.0,Yes,Isolated,1.0,3.0,Program B,,,,,,,,,,,,,,,,,,,,,,,,,,,,,,,,,,,,,,,,,,,,,,,,,,,,,,,,,,,,,,,,,,,,,,,,,,,,,,,,,,,,,,,,,,,,,,,,,,,,,,,,,,,,,,,,,,,,,
108507,2812,2020-03-31 10:12:23,EN,64,Female,"College degree, bachelor, master",Up to 12 years of school,Retired,United States,no,Washington,Married/cohabiting,0.0,Yes,Isolated,1.0,0.0,Program A,,No,4.0,3.0,4.0,3.0,3.0,1.0,3.0,3.0,3.0,2.0,2.0,3.0,3.0,8.0,9.0,7.0,8.0,9.0,9.0,9.0,4.0,5.0,5.0,5.0,5.0,6.0,2.0,6.0,5.0,6.0,2.0,2.0,3.0,4.0,3.0,6.0,4.0,2.0,5.0,5.0,5.0,3.0,4.0,3.0,4.0,5.0,4.0,5.0,5.0,99.0,99.0,99.0,2.0,3.0,2.0,2.0,99.0,5.0,2.0,4.0,4.0,2.0,99.0,2.0,2.0,2.0,3.0,1.0,1.0,2.0,5.0,1.0,"I am in one of the first areas of the country to be hit by COVID-19, and while our local government's response has been excellent, it has been stressful for me to watch people in other parts of the country go through the same cycle of joking, denying, grudging acceptance, and then disbelief as the full impact of the virus hits their area. Especially on social media. The federal government's response (lack of response) has exacerbated this by pitting states and regions of the country against each other, so that many people will suffer who could otherwise have learned from the experience of those of us in the areas that were hit early on. This has been probably the most distressing thing to me.",5.0,5.0,5.0,5.0,6.0,5.0,5.0,6.0,5.0,5.0,4.0,5.0,5.0,2.0,5.0,5.0,2.0,2.0,4.0,4.0,6.0,4.0,5.0,4.0,4.0,3.0,"Watching spring unfold as normal, the natural world continuing",2.0,4.0,4.0,4.0,3.0,4.0,,2.9,2.666667,2.666667,2.666667,4.333333,3.333333,4.333333,5.2
108516,106,2020-03-31 09:40:08,ZH-T,32,Female,PhD/Doctorate,PhD/Doctorate,Student,United States,no,Illinois,Single,0.0,No,Isolated,0.0,,,,,,,,,,,,,,,,,,,,,,,,,,,,,,,,,,,,,,,,,,,,,,,,,,,,,,,,,,,,,,,,,,,,,,,,,,,,,,,,,,,,,,,,,,,,,,,,,,,,,,,,,,,,,,,,,,,,,,,
108521,262,2020-03-31 09:38:40,EN,27,Female,PhD/Doctorate,College degree,Full time employed,United States,no,Minnesota,Married/cohabiting,0.0,Yes,Isolated,1.0,0.0,,Program C,No,3.0,3.0,3.0,3.0,3.0,2.0,3.0,3.0,3.0,3.0,3.0,4.0,3.0,3.0,6.0,2.0,2.0,8.0,6.0,8.0,2.0,2.0,5.0,5.0,5.0,5.0,2.0,5.0,5.0,5.0,2.0,3.0,4.0,4.0,5.0,5.0,4.0,3.0,5.0,5.0,4.0,5.0,3.0,3.0,4.0,5.0,3.0,5.0,,,,,,,,,,,,,,,,,,,,,,,,,,,,,,,,,,,,,,,,,,,,,,,,,,,,,,,,,,,,2.9,3.333333,3.666667,3.0,4.666667,3.666667,4.666667,
108530,754,2020-03-30 09:34:09,EN,25,Female,"College degree, bachelor, master",College degree,Student,United States,no,New York,Married/cohabiting,0.0,Yes,Life carries on with minor changes,1.0,0.0,,Program C,No,4.0,4.0,5.0,4.0,3.0,2.0,4.0,2.0,5.0,2.0,3.0,2.0,4.0,8.0,10.0,2.0,7.0,7.0,6.0,10.0,2.0,5.0,5.0,5.0,6.0,6.0,2.0,6.0,5.0,4.0,4.0,4.0,4.0,2.0,1.0,5.0,6.0,6.0,1.0,5.0,6.0,6.0,1.0,6.0,6.0,6.0,4.0,6.0,5.0,5.0,99.0,6.0,4.0,6.0,3.0,1.0,99.0,6.0,4.0,4.0,5.0,6.0,5.0,4.0,4.0,6.0,6.0,6.0,3.0,4.0,6.0,4.0,,6.0,6.0,5.0,6.0,6.0,5.0,6.0,6.0,4.0,6.0,4.0,4.0,6.0,4.0,6.0,4.0,6.0,6.0,4.0,6.0,4.0,4.0,4.0,6.0,1.0,3.0,,4.0,4.0,5.0,6.0,3.0,1.0,,3.3,3.0,1.666667,6.0,5.666667,6.0,5.0,5.6
108540,1053,2020-03-31 09:37:05,EN,37,Male,"College degree, bachelor, master",Some College or equivalent,Full time employed,United States,no,Georgia,Single,0.0,Yes,Isolated,0.0,0.0,Program B,,Yes,3.0,2.0,2.0,5.0,3.0,1.0,4.0,4.0,2.0,2.0,3.0,2.0,3.0,5.0,9.0,4.0,5.0,5.0,6.0,3.0,5.0,3.0,5.0,3.0,5.0,5.0,3.0,5.0,5.0,5.0,2.0,4.0,4.0,2.0,3.0,3.0,4.0,1.0,6.0,4.0,4.0,3.0,4.0,4.0,5.0,5.0,4.0,4.0,99.0,4.0,99.0,99.0,4.0,3.0,2.0,99.0,99.0,5.0,2.0,4.0,5.0,5.0,2.0,3.0,3.0,3.0,3.0,3.0,5.0,2.0,5.0,2.0,,,,,,,,,,,,,,,,,,,,,,,,,,,,,,,,,,,,2.0,2.666667,3.0,2.0,3.666667,4.0,4.0,
108563,1199,2020-03-30 09:36:01,BG,42,Male,"College degree, bachelor, master",College degree,Student,United States,yes,Boston area,Married/cohabiting,2.0,Yes,Life carries on with minor changes,1.0,2.0,Program A,,No,1.0,2.0,3.0,5.0,4.0,1.0,5.0,3.0,2.0,1.0,1.0,1.0,1.0,8.0,9.0,8.0,9.0,9.0,9.0,8.0,8.0,3.0,6.0,5.0,6.0,6.0,5.0,5.0,5.0,5.0,2.0,5.0,3.0,2.0,2.0,5.0,5.0,5.0,3.0,4.0,5.0,5.0,2.0,5.0,5.0,5.0,2.0,5.0,5.0,5.0,5.0,5.0,5.0,3.0,1.0,2.0,2.0,6.0,5.0,6.0,6.0,6.0,6.0,2.0,2.0,1.0,2.0,2.0,5.0,2.0,5.0,5.0,,4.0,5.0,5.0,6.0,6.0,5.0,6.0,6.0,5.0,6.0,3.0,6.0,5.0,2.0,4.0,5.0,1.0,1.0,2.0,4.0,4.0,4.0,4.0,5.0,1.0,4.0,,2.0,5.0,1.0,2.0,4.0,4.0,,1.7,1.0,2.0,4.666667,4.666667,5.0,5.0,5.4
108568,1362,2020-03-30 09:38:10,EN,72,Female,Up to 12 years of school,Up to 6 years of school,Retired,United States,no,Michigan,Married/cohabiting,0.0,Yes,Isolated,1.0,0.0,,Program C,No,3.0,3.0,4.0,3.0,,3.0,3.0,3.0,5.0,3.0,3.0,3.0,4.0,6.0,6.0,6.0,9.0,8.0,6.0,2.0,2.0,5.0,5.0,5.0,5.0,5.0,1.0,5.0,5.0,5.0,5.0,4.0,4.0,5.0,5.0,4.0,4.0,3.0,4.0,5.0,5.0,5.0,4.0,5.0,4.0,5.0,5.0,5.0,5.0,99.0,99.0,99.0,6.0,4.0,5.0,5.0,99.0,5.0,99.0,1.0,99.0,5.0,,5.0,5.0,5.0,5.0,5.0,99.0,5.0,5.0,5.0,,5.0,5.0,5.0,5.0,4.0,5.0,5.0,5.0,4.0,5.0,3.0,5.0,4.0,1.0,5.0,5.0,5.0,1.0,5.0,2.0,5.0,1.0,2.0,5.0,1.0,3.0,,5.0,5.0,5.0,5.0,5.0,3.0,I want to be tested. Did not qualify. I want cure for this virus. Or shot to prevent,3.333333,3.333333,4.333333,3.333333,5.0,4.0,4.0,4.8
108574,1337,2020-03-30 09:37:10,EN,46,Female,"College degree, bachelor, master",College degree,Not employed,United States,no,Virginia,Married/cohabiting,1.0,Yes,Isolated,3.0,0.0,,Program D,No,4.0,5.0,4.0,2.0,3.0,3.0,3.0,2.0,3.0,3.0,4.0,4.0,4.0,6.0,9.0,2.0,2.0,4.0,2.0,8.0,1.0,6.0,6.0,6.0,6.0,6.0,1.0,5.0,6.0,6.0,4.0,3.0,2.0,3.0,2.0,5.0,5.0,6.0,1.0,4.0,6.0,4.0,1.0,5.0,5.0,5.0,2.0,5.0,5.0,99.0,99.0,99.0,6.0,6.0,5.0,6.0,99.0,5.0,4.0,6.0,6.0,6.0,99.0,5.0,5.0,5.0,6.0,6.0,5.0,4.0,6.0,5.0,,5.0,6.0,6.0,6.0,6.0,6.0,6.0,6.0,6.0,6.0,3.0,1.0,5.0,1.0,6.0,5.0,1.0,2.0,5.0,6.0,4.0,5.0,5.0,5.0,6.0,2.0,,2.0,4.0,5.0,5.0,4.0,4.0,,3.6,4.0,2.333333,5.666667,4.666667,5.333333,5.0,5.9
108589,638,2020-03-30 09:23:52,ZH-T,30,Male,PhD/Doctorate,College degree,Student,United States,yes,"Albany, NY",Single,0.0,Yes,Life carries on with minor changes,0.0,0.0,Program B,,No,5.0,4.0,4.0,2.0,2.0,4.0,2.0,3.0,3.0,4.0,5.0,5.0,5.0,4.0,6.0,4.0,3.0,4.0,6.0,1.0,6.0,4.0,5.0,5.0,4.0,4.0,2.0,5.0,6.0,6.0,3.0,6.0,6.0,5.0,5.0,5.0,3.0,2.0,4.0,4.0,4.0,4.0,5.0,5.0,5.0,5.0,6.0,5.0,1.0,2.0,1.0,3.0,2.0,3.0,2.0,4.0,4.0,4.0,3.0,4.0,4.0,5.0,2.0,2.0,2.0,3.0,2.0,2.0,4.0,2.0,2.0,2.0,,1.0,1.0,4.0,1.0,1.0,1.0,2.0,1.0,2.0,4.0,3.0,5.0,5.0,5.0,5.0,2.0,2.0,2.0,2.0,5.0,5.0,3.0,5.0,5.0,2.0,4.0,,2.0,4.0,2.0,2.0,2.0,2.0,,3.9,5.0,4.0,2.666667,4.0,4.0,3.666667,1.8
108606,1563,2020-03-30 09:36:04,ZH-T,32,Female,PhD/Doctorate,College degree,Student,United States,yes,MA,Married/cohabiting,0.0,No,Isolated,1.0,0.0,,Program D,Not sure,4.0,3.0,3.0,4.0,2.0,3.0,3.0,2.0,3.0,3.0,2.0,1.0,1.0,5.0,8.0,7.0,1.0,5.0,3.0,5.0,7.0,5.0,5.0,5.0,5.0,5.0,4.0,5.0,5.0,5.0,2.0,3.0,5.0,4.0,4.0,4.0,3.0,3.0,5.0,2.0,4.0,4.0,3.0,5.0,4.0,3.0,4.0,3.0,2.0,3.0,99.0,3.0,4.0,3.0,1.0,3.0,99.0,2.0,5.0,5.0,5.0,5.0,5.0,3.0,3.0,3.0,1.0,,5.0,3.0,5.0,3.0,,6.0,5.0,4.0,6.0,5.0,4.0,5.0,6.0,4.0,5.0,5.0,5.0,5.0,4.0,5.0,5.0,1.0,1.0,5.0,5.0,5.0,5.0,3.0,5.0,5.0,5.0,,6.0,3.0,5.0,3.0,5.0,3.0,,3.2,1.333333,3.666667,2.666667,3.333333,4.333333,3.0,5.0
108616,1072,2020-03-30 09:23:34,ZH-T,37,Male,PhD/Doctorate,PhD/Doctorate,Full time employed,United States,yes,"Jersey City, NJ",Married/cohabiting,0.0,No,Isolated,1.0,0.0,Program A,,No,2.0,2.0,2.0,4.0,4.0,2.0,4.0,3.0,4.0,2.0,1.0,1.0,4.0,3.0,8.0,10.0,9.0,9.0,6.0,0.0,7.0,4.0,4.0,4.0,5.0,6.0,3.0,5.0,6.0,6.0,1.0,2.0,5.0,5.0,4.0,2.0,5.0,5.0,2.0,5.0,6.0,6.0,1.0,5.0,5.0,5.0,4.0,5.0,3.0,5.0,1.0,6.0,4.0,1.0,2.0,2.0,1.0,99.0,5.0,6.0,5.0,5.0,2.0,1.0,1.0,2.0,2.0,2.0,6.0,2.0,5.0,5.0,,5.0,5.0,5.0,5.0,6.0,5.0,6.0,5.0,6.0,4.0,4.0,5.0,5.0,2.0,5.0,4.0,2.0,6.0,5.0,6.0,5.0,2.0,5.0,6.0,4.0,4.0,,3.0,5.0,3.0,2.0,4.0,3.0,"<U+958B><U+59CB><U+601D><U+8003><U+53D6><U+5F97>fire arm <U+7684><U+57F7><U+7167>,<U+4EE5><U+8CFC><U+8CB7><U+6B66><U+5668><U+4FDD><U+8B77><U+5BB6><U+4EBA>",2.3,2.0,4.666667,5.0,5.666667,5.333333,4.333333,5.2
108617,598,2020-03-30 09:15:29,ZH-T,36,Male,PhD/Doctorate,Up to 12 years of school,Full time employed,United States,yes,New York,Single,0.0,No,Isolated,0.0,0.0,Program B,,No,2.0,2.0,2.0,3.0,3.0,2.0,4.0,3.0,2.0,2.0,2.0,2.0,2.0,6.0,7.0,6.0,5.0,5.0,5.0,0.0,3.0,3.0,4.0,4.0,5.0,5.0,2.0,5.0,5.0,5.0,2.0,4.0,5.0,3.0,2.0,5.0,5.0,5.0,4.0,4.0,4.0,5.0,4.0,5.0,4.0,5.0,3.0,4.0,2.0,3.0,3.0,3.0,4.0,3.0,3.0,4.0,2.0,5.0,3.0,5.0,2.0,5.0,3.0,3.0,3.0,2.0,5.0,3.0,5.0,4.0,4.0,2.0,,4.0,4.0,4.0,4.0,3.0,4.0,4.0,5.0,3.0,4.0,4.0,5.0,5.0,4.0,4.0,4.0,4.0,4.0,4.0,4.0,4.0,4.0,4.0,5.0,5.0,4.0,,4.0,4.0,5.0,2.0,4.0,3.0,,2.3,2.0,2.333333,4.333333,4.333333,4.0,4.333333,3.9
108622,1296,2020-03-31 09:26:37,EN,55,Female,PhD/Doctorate,Some College or equivalent,Self-employed,United States,no,Michigan,Married/cohabiting,1.0,No,Isolated,1.0,0.0,,Program D,No,4.0,5.0,5.0,2.0,3.0,3.0,3.0,2.0,4.0,5.0,1.0,2.0,5.0,7.0,9.0,3.0,6.0,7.0,5.0,10.0,0.0,3.0,6.0,6.0,6.0,6.0,0.0,6.0,6.0,6.0,1.0,4.0,4.0,5.0,2.0,5.0,6.0,6.0,1.0,6.0,6.0,2.0,4.0,5.0,5.0,3.0,2.0,5.0,6.0,5.0,99.0,1.0,3.0,4.0,99.0,1.0,99.0,6.0,3.0,6.0,6.0,6.0,6.0,4.0,2.0,4.0,3.0,4.0,6.0,1.0,6.0,1.0,,6.0,6.0,6.0,6.0,6.0,6.0,6.0,6.0,6.0,6.0,2.0,5.0,6.0,1.0,6.0,4.0,1.0,1.0,5.0,5.0,5.0,5.0,6.0,5.0,4.0,2.0,"Yoga, meditation",5.0,5.0,5.0,3.0,6.0,5.0,"I'm a family law attorney.  My income has been destroyed by the shut down of the courts.  I have serious worries about my clients in violent relationships.  I'm terrified for my parents and older family members and friends.  I'm not usually a big worrier, but I've been crying a lot.",4.0,2.666667,3.0,6.0,4.666667,4.333333,4.333333,6.0
108623,1244,2020-03-30 09:25:32,EN,35,Male,"College degree, bachelor, master",Up to 12 years of school,Student,United States,no,OK,Married/cohabiting,3.0,Yes,Isolated,1.0,3.0,,Program D,No,1.0,1.0,2.0,5.0,5.0,1.0,5.0,4.0,2.0,2.0,2.0,2.0,4.0,3.0,9.0,1.0,6.0,6.0,7.0,1.0,6.0,2.0,4.0,4.0,4.0,5.0,8.0,6.0,5.0,6.0,1.0,1.0,1.0,5.0,4.0,6.0,2.0,1.0,5.0,4.0,5.0,6.0,1.0,6.0,6.0,5.0,4.0,5.0,1.0,5.0,1.0,6.0,4.0,1.0,1.0,1.0,1.0,6.0,1.0,5.0,2.0,5.0,4.0,2.0,1.0,1.0,1.0,1.0,1.0,1.0,6.0,1.0,,6.0,2.0,2.0,6.0,6.0,5.0,6.0,6.0,6.0,6.0,2.0,4.0,1.0,1.0,1.0,2.0,5.0,5.0,5.0,5.0,3.0,1.0,5.0,5.0,1.0,5.0,,2.0,1.0,4.0,4.0,5.0,1.0,,1.4,2.666667,3.333333,1.666667,5.0,6.0,4.333333,5.1
108632,697,2020-03-31 09:20:08,ZH-T,49,Female,PhD/Doctorate,Up to 9 years of school,Full time employed,United States,yes,Texas,Married/cohabiting,2.0,No,Isolated,,2.0,,Program D,No,2.0,2.0,2.0,4.0,4.0,2.0,5.0,3.0,1.0,1.0,1.0,1.0,2.0,8.0,8.0,5.0,5.0,5.0,4.0,0.0,2.0,1.0,1.0,1.0,1.0,1.0,0.0,4.0,6.0,6.0,2.0,5.0,6.0,5.0,6.0,6.0,5.0,6.0,2.0,1.0,4.0,5.0,2.0,6.0,6.0,6.0,4.0,6.0,2.0,2.0,3.0,2.0,2.0,2.0,2.0,2.0,2.0,2.0,3.0,3.0,2.0,2.0,2.0,2.0,3.0,2.0,2.0,2.0,3.0,3.0,3.0,2.0,,5.0,5.0,5.0,6.0,6.0,5.0,5.0,6.0,5.0,5.0,5.0,5.0,6.0,5.0,5.0,5.0,2.0,2.0,2.0,5.0,5.0,5.0,6.0,4.0,5.0,6.0,,6.0,5.0,4.0,5.0,6.0,4.0,,1.8,1.333333,4.0,5.333333,3.333333,5.666667,5.0,5.3
108642,1169,2020-03-30 09:22:05,EN,50,Male,"College degree, bachelor, master",Some College or equivalent,Not employed,United States,no,MI,Single,0.0,Yes,Isolated,0.0,0.0,,Program C,Not sure,2.0,2.0,3.0,4.0,3.0,1.0,4.0,3.0,2.0,1.0,3.0,3.0,4.0,7.0,8.0,6.0,6.0,7.0,7.0,7.0,8.0,5.0,5.0,5.0,6.0,6.0,3.0,6.0,5.0,6.0,3.0,5.0,4.0,5.0,2.0,4.0,4.0,4.0,4.0,4.0,5.0,4.0,4.0,4.0,5.0,4.0,4.0,5.0,5.0,99.0,99.0,5.0,4.0,6.0,2.0,99.0,99.0,5.0,3.0,5.0,4.0,5.0,99.0,6.0,4.0,4.0,4.0,4.0,5.0,3.0,6.0,4.0,,5.0,6.0,5.0,4.0,4.0,5.0,5.0,5.0,5.0,5.0,4.0,5.0,6.0,1.0,3.0,4.0,4.0,2.0,4.0,3.0,5.0,5.0,3.0,4.0,2.0,4.0,,5.0,4.0,4.0,4.0,4.0,4.0,,2.1,3.333333,3.333333,3.666667,4.333333,4.0,4.0,4.9
108644,134,2020-03-31 09:04:26,EN,25,Female,"College degree, bachelor, master",College degree,Full time employed,United States,no,PA,Single,0.0,Yes,Life carries on with minor changes,4.0,0.0,Program B,,,,,,,,,,,,,,,,,,,,,,,,,,,,,,,,,,,,,,,,,,,,,,,,,,,,,,,,,,,,,,,,,,,,,,,,,,,,,,,,,,,,,,,,,,,,,,,,,,,,,,,,,,,,,,,,,,,,,
108676,406,2020-03-30 09:04:29,ZH-T,28,Female,PhD/Doctorate,PhD/Doctorate,Full time employed,United States,yes,Texas,Single,0.0,Not sure,Life carries on with minor changes,0.0,0.0,,Program D,Yes,4.0,3.0,5.0,2.0,3.0,4.0,3.0,2.0,2.0,4.0,3.0,2.0,3.0,1.0,5.0,3.0,2.0,2.0,2.0,0.0,5.0,4.0,4.0,4.0,5.0,5.0,0.0,2.0,4.0,5.0,3.0,2.0,5.0,5.0,4.0,3.0,3.0,4.0,2.0,4.0,5.0,2.0,2.0,4.0,5.0,5.0,2.0,4.0,6.0,5.0,99.0,6.0,6.0,6.0,99.0,6.0,99.0,6.0,6.0,6.0,99.0,6.0,99.0,6.0,3.0,4.0,99.0,99.0,6.0,4.0,6.0,6.0,,3.0,2.0,2.0,2.0,5.0,2.0,3.0,2.0,2.0,3.0,2.0,2.0,3.0,2.0,2.0,3.0,2.0,2.0,2.0,2.0,2.0,3.0,2.0,2.0,2.0,4.0,,5.0,4.0,4.0,1.0,4.0,1.0,,3.6,2.666667,4.333333,4.0,3.666667,4.666667,4.666667,2.6
108691,106,2020-03-31 08:57:20,EN,38,Male,Up to 12 years of school,Up to 12 years of school,Self-employed,United States,no,AZ,Single,1.0,Not sure,Isolated,1.0,0.0,Program A,,,,,,,,,,,,,,,,,,,,,,,,,,,,,,,,,,,,,,,,,,,,,,,,,,,,,,,,,,,,,,,,,,,,,,,,,,,,,,,,,,,,,,,,,,,,,,,,,,,,,,,,,,,,,,,,,,,,,
108701,708,2020-03-31 09:05:47,EN,44,Male,"Some College, short continuing education or equivalent",College degree,Full time employed,United States,no,Michigan,Single,1.0,No,Isolated,1.0,2.0,,Program D,No,1.0,1.0,3.0,4.0,3.0,1.0,5.0,4.0,1.0,2.0,3.0,1.0,3.0,2.0,6.0,0.0,1.0,0.0,9.0,8.0,0.0,5.0,5.0,5.0,5.0,5.0,1.0,4.0,6.0,5.0,1.0,1.0,2.0,4.0,4.0,4.0,5.0,4.0,4.0,4.0,6.0,5.0,5.0,6.0,4.0,4.0,2.0,5.0,6.0,99.0,5.0,5.0,5.0,4.0,1.0,1.0,5.0,6.0,5.0,6.0,5.0,5.0,2.0,4.0,2.0,5.0,6.0,5.0,2.0,1.0,6.0,5.0,,5.0,5.0,5.0,2.0,5.0,5.0,3.0,3.0,2.0,5.0,2.0,,2.0,2.0,5.0,,1.0,,6.0,4.0,,6.0,2.0,,1.0,5.0,,2.0,5.0,6.0,2.0,2.0,2.0,,1.7,2.333333,3.666667,4.0,5.0,4.0,4.666667,4.0
108702,531,2020-03-30 09:02:44,ZH-T,26,Male,PhD/Doctorate,College degree,Student,United States,yes,CA,Single,0.0,Yes,Life carries on with minor changes,0.0,0.0,Program B,,Yes,2.0,1.0,2.0,4.0,3.0,2.0,1.0,4.0,1.0,1.0,2.0,1.0,2.0,4.0,7.0,7.0,8.0,4.0,9.0,0.0,7.0,3.0,3.0,3.0,4.0,4.0,4.0,6.0,5.0,6.0,1.0,4.0,5.0,3.0,4.0,4.0,2.0,2.0,5.0,4.0,4.0,4.0,4.0,4.0,5.0,4.0,3.0,4.0,3.0,4.0,99.0,4.0,3.0,1.0,1.0,99.0,99.0,5.0,3.0,4.0,4.0,4.0,3.0,1.0,1.0,2.0,1.0,1.0,4.0,3.0,4.0,1.0,,4.0,4.0,3.0,5.0,5.0,4.0,3.0,5.0,3.0,4.0,3.0,4.0,3.0,3.0,3.0,4.0,5.0,5.0,5.0,3.0,3.0,3.0,4.0,4.0,2.0,4.0,,3.0,3.0,3.0,3.0,3.0,2.0,,2.1,1.666667,3.333333,2.0,4.0,4.0,4.0,4.0
108718,673,2020-03-30 09:02:15,EN,45,Female,"College degree, bachelor, master",College degree,Full time employed,United States,no,Virginia,Married/cohabiting,2.0,No,Life carries on with minor changes,,,,Program C,No,3.0,2.0,3.0,4.0,4.0,2.0,4.0,4.0,2.0,2.0,2.0,2.0,3.0,8.0,10.0,5.0,5.0,5.0,5.0,5.0,5.0,4.0,4.0,4.0,6.0,6.0,5.0,6.0,6.0,6.0,1.0,2.0,2.0,6.0,6.0,5.0,3.0,2.0,4.0,3.0,5.0,3.0,2.0,5.0,5.0,5.0,3.0,3.0,4.0,1.0,5.0,2.0,2.0,2.0,2.0,2.0,2.0,4.0,3.0,5.0,6.0,4.0,2.0,2.0,2.0,2.0,2.0,2.0,2.0,2.0,3.0,2.0,,6.0,6.0,6.0,6.0,6.0,6.0,6.0,6.0,6.0,6.0,5.0,5.0,5.0,5.0,4.0,5.0,4.0,4.0,3.0,4.0,2.0,5.0,4.0,6.0,5.0,5.0,,3.0,3.0,3.0,4.0,3.0,4.0,,2.2,2.333333,4.666667,2.666667,3.666667,5.0,4.0,6.0
108720,614,2020-03-30 09:01:10,EN,27,Female,"College degree, bachelor, master",Some College or equivalent,Full time employed,United States,no,Louisiana,Married/cohabiting,0.0,Yes,Isolated,1.0,0.0,Program A,,No,3.0,5.0,5.0,2.0,2.0,4.0,2.0,3.0,3.0,4.0,2.0,2.0,3.0,4.0,7.0,4.0,2.0,7.0,3.0,8.0,2.0,6.0,6.0,6.0,6.0,6.0,1.0,5.0,5.0,6.0,1.0,3.0,2.0,6.0,6.0,2.0,4.0,2.0,3.0,3.0,6.0,3.0,1.0,3.0,5.0,2.0,3.0,4.0,6.0,5.0,99.0,6.0,4.0,4.0,99.0,1.0,99.0,6.0,4.0,6.0,6.0,5.0,5.0,5.0,2.0,3.0,3.0,3.0,6.0,2.0,6.0,1.0,,5.0,5.0,5.0,5.0,5.0,4.0,5.0,5.0,5.0,5.0,3.0,1.0,5.0,1.0,4.0,4.0,5.0,5.0,6.0,4.0,4.0,6.0,3.0,4.0,1.0,4.0,,6.0,6.0,4.0,6.0,6.0,4.0,,3.9,2.333333,5.666667,3.333333,4.0,4.666667,3.333333,4.9
108721,836,2020-03-31 09:04:37,EN,46,Male,"College degree, bachelor, master",College degree,Not employed,United States,no,mi,Married/cohabiting,1.0,No,Isolated,1.0,1.0,Program B,,No,2.0,2.0,1.0,4.0,3.0,1.0,2.0,3.0,2.0,1.0,1.0,1.0,1.0,6.0,7.0,2.0,4.0,6.0,0.0,4.0,0.0,5.0,5.0,5.0,5.0,5.0,0.0,5.0,5.0,5.0,3.0,5.0,4.0,4.0,2.0,5.0,5.0,5.0,3.0,5.0,6.0,6.0,5.0,5.0,3.0,4.0,5.0,5.0,99.0,,4.0,5.0,3.0,5.0,5.0,3.0,5.0,6.0,2.0,4.0,3.0,5.0,,4.0,2.0,2.0,3.0,2.0,3.0,2.0,5.0,2.0,,6.0,6.0,5.0,6.0,5.0,4.0,6.0,6.0,6.0,4.0,4.0,4.0,5.0,,,5.0,,,6.0,4.0,4.0,3.0,4.0,5.0,,3.0,,1.0,3.0,3.0,4.0,4.0,5.0,,2.1,1.0,2.666667,4.666667,5.666667,3.333333,3.666667,5.4
108729,829,2020-03-30 09:03:07,EN,39,Female,"College degree, bachelor, master",College degree,Full time employed,United States,no,Florida,Married/cohabiting,1.0,No,Isolated,1.0,1.0,Program A,,No,3.0,2.0,3.0,5.0,3.0,1.0,3.0,4.0,2.0,1.0,1.0,2.0,5.0,3.0,9.0,3.0,7.0,8.0,5.0,8.0,1.0,2.0,5.0,5.0,6.0,6.0,1.0,6.0,6.0,6.0,2.0,5.0,5.0,2.0,2.0,4.0,3.0,2.0,4.0,3.0,6.0,3.0,5.0,5.0,5.0,4.0,5.0,5.0,1.0,1.0,2.0,3.0,4.0,5.0,1.0,3.0,2.0,5.0,2.0,4.0,5.0,6.0,1.0,4.0,1.0,4.0,4.0,4.0,3.0,1.0,5.0,2.0,,6.0,5.0,5.0,6.0,6.0,6.0,6.0,6.0,5.0,6.0,1.0,1.0,6.0,1.0,5.0,1.0,1.0,6.0,1.0,3.0,4.0,1.0,1.0,5.0,1.0,4.0,,2.0,5.0,2.0,6.0,4.0,5.0,,2.1,2.666667,2.333333,2.666667,4.0,4.0,3.666667,5.7
108732,590,2020-03-30 08:58:38,EN,48,Male,PhD/Doctorate,College degree,Full time employed,United States,yes,Florida,Married/cohabiting,1.0,Yes,Life carries on with minor changes,1.0,0.0,,Program D,Yes,2.0,2.0,2.0,4.0,3.0,1.0,4.0,5.0,2.0,2.0,1.0,2.0,3.0,5.0,9.0,4.0,9.0,8.0,8.0,0.0,5.0,4.0,5.0,4.0,5.0,4.0,3.0,5.0,5.0,5.0,3.0,4.0,3.0,2.0,2.0,5.0,4.0,3.0,4.0,6.0,6.0,6.0,2.0,5.0,4.0,4.0,4.0,6.0,2.0,2.0,6.0,5.0,4.0,4.0,2.0,1.0,1.0,99.0,4.0,5.0,4.0,2.0,2.0,3.0,1.0,3.0,1.0,2.0,4.0,2.0,6.0,4.0,,6.0,6.0,5.0,6.0,6.0,6.0,6.0,6.0,6.0,6.0,4.0,6.0,4.0,5.0,4.0,4.0,6.0,6.0,6.0,4.0,4.0,4.0,4.0,6.0,4.0,4.0,,4.0,4.0,3.0,4.0,4.0,3.0,,1.9,2.0,2.0,3.333333,6.0,4.666667,4.333333,5.9
108742,593,2020-03-30 08:55:08,EN,43,Male,"College degree, bachelor, master",College degree,Full time employed,United States,no,MI,Married/cohabiting,1.0,No,Isolated,2.0,1.0,Program A,,No,3.0,1.0,1.0,5.0,5.0,1.0,4.0,5.0,1.0,1.0,1.0,1.0,3.0,4.0,8.0,3.0,6.0,4.0,7.0,7.0,1.0,5.0,5.0,5.0,5.0,5.0,0.0,6.0,5.0,5.0,2.0,3.0,4.0,2.0,2.0,6.0,5.0,5.0,2.0,5.0,5.0,4.0,2.0,4.0,6.0,4.0,3.0,6.0,1.0,6.0,5.0,1.0,2.0,5.0,1.0,4.0,5.0,4.0,4.0,5.0,5.0,5.0,1.0,5.0,1.0,2.0,2.0,5.0,2.0,1.0,4.0,3.0,,6.0,6.0,5.0,6.0,6.0,6.0,6.0,6.0,6.0,6.0,5.0,3.0,4.0,2.0,4.0,5.0,4.0,5.0,5.0,5.0,6.0,5.0,4.0,5.0,1.0,2.0,,5.0,5.0,5.0,5.0,5.0,2.0,,1.3,1.666667,1.666667,5.0,4.666667,5.0,4.666667,5.9
108756,3613,2020-03-31 09:45:20,EN,41,Female,PhD/Doctorate,Up to 12 years of school,Full time employed,United States,no,Florida,Married/cohabiting,1.0,No,Life carries on with minor changes,0.0,1.0,,Program C,Not sure,2.0,2.0,3.0,5.0,3.0,1.0,2.0,1.0,3.0,1.0,3.0,1.0,2.0,4.0,8.0,9.0,10.0,10.0,10.0,10.0,5.0,1.0,1.0,1.0,5.0,5.0,0.0,6.0,6.0,6.0,1.0,1.0,1.0,3.0,1.0,6.0,5.0,6.0,4.0,4.0,6.0,2.0,1.0,5.0,6.0,5.0,4.0,6.0,1.0,6.0,1.0,1.0,3.0,1.0,99.0,99.0,4.0,4.0,4.0,1.0,1.0,1.0,2.0,1.0,1.0,1.0,1.0,1.0,1.0,1.0,4.0,4.0,,,,,,,,,,,,,,,,,,,,,,,,,,,,,,,,,,,,2.5,2.0,1.666667,4.666667,4.0,5.666667,4.666667,
108758,1199,2020-03-30 08:59:22,EN,46,Female,"College degree, bachelor, master",College degree,Full time employed,United States,no,Arizona,Married/cohabiting,0.0,Not sure,Isolated,1.0,0.0,Program A,,Not sure,1.0,1.0,1.0,5.0,5.0,1.0,5.0,4.0,1.0,1.0,1.0,2.0,1.0,8.0,6.0,5.0,5.0,8.0,5.0,8.0,4.0,4.0,6.0,3.0,5.0,5.0,0.0,5.0,5.0,5.0,1.0,4.0,3.0,1.0,2.0,6.0,1.0,2.0,5.0,5.0,5.0,2.0,6.0,5.0,5.0,2.0,4.0,5.0,1.0,2.0,99.0,1.0,2.0,3.0,1.0,3.0,99.0,4.0,4.0,4.0,5.0,6.0,4.0,2.0,1.0,1.0,1.0,2.0,2.0,2.0,3.0,1.0,Most of our friends were in the restaurant industry.  Worried about their ability to pay bills/get food.,5.0,5.0,5.0,5.0,5.0,5.0,5.0,5.0,5.0,5.0,3.0,3.0,4.0,2.0,5.0,6.0,1.0,1.0,3.0,4.0,3.0,4.0,5.0,5.0,1.0,4.0,,3.0,4.0,4.0,3.0,3.0,2.0,,1.1,1.333333,1.333333,1.666667,4.0,3.666667,3.333333,5.0
108763,862,2020-03-30 08:52:55,DA,29,Male,"College degree, bachelor, master",College degree,Full time employed,United States,no,,Married/cohabiting,0.0,Yes,Isolated,1.0,0.0,,Program C,Not sure,3.0,4.0,3.0,4.0,4.0,2.0,4.0,3.0,1.0,2.0,3.0,1.0,3.0,6.0,9.0,8.0,10.0,8.0,10.0,10.0,9.0,2.0,4.0,2.0,4.0,5.0,5.0,6.0,4.0,3.0,4.0,4.0,4.0,4.0,4.0,5.0,4.0,5.0,3.0,5.0,6.0,6.0,2.0,5.0,5.0,5.0,3.0,5.0,1.0,4.0,99.0,2.0,4.0,5.0,1.0,2.0,99.0,6.0,4.0,4.0,4.0,4.0,4.0,4.0,2.0,4.0,5.0,4.0,1.0,1.0,5.0,5.0,,6.0,6.0,4.0,5.0,4.0,5.0,4.0,6.0,5.0,6.0,5.0,6.0,6.0,5.0,4.0,4.0,6.0,2.0,5.0,5.0,3.0,5.0,4.0,6.0,1.0,5.0,,4.0,1.0,6.0,3.0,1.0,2.0,,2.4,2.333333,3.333333,4.333333,5.666667,5.0,4.666667,5.1
108768,856,2020-03-30 08:50:34,EN,55,Female,"College degree, bachelor, master",Up to 12 years of school,Student,United States,no,Virginia,Married/cohabiting,3.0,Yes,Isolated,3.0,0.0,Program A,,Not sure,1.0,2.0,4.0,4.0,4.0,2.0,4.0,2.0,1.0,1.0,2.0,4.0,3.0,7.0,9.0,2.0,9.0,7.0,9.0,10.0,2.0,2.0,2.0,4.0,6.0,6.0,,6.0,6.0,6.0,2.0,2.0,4.0,3.0,3.0,6.0,4.0,3.0,5.0,5.0,6.0,6.0,2.0,5.0,6.0,5.0,4.0,5.0,99.0,99.0,5.0,1.0,2.0,2.0,5.0,5.0,99.0,6.0,3.0,4.0,5.0,6.0,99.0,2.0,2.0,4.0,2.0,3.0,2.0,1.0,2.0,2.0,,5.0,5.0,5.0,5.0,5.0,6.0,5.0,5.0,5.0,6.0,2.0,2.0,5.0,2.0,5.0,5.0,2.0,1.0,4.0,6.0,6.0,4.0,6.0,5.0,5.0,2.0,,1.0,6.0,2.0,2.0,5.0,3.0,"I am mostly frustrated with other people who are not following the social distancing norms.  I am also concerned about the long term impact on the economy, as almost all of our income comes from new home construction, and people are not buying homes.  I am worried about those without health insurance.",2.1,3.0,2.333333,3.0,5.666667,5.333333,4.333333,5.2
108775,1251,2020-03-30 08:56:22,EN,58,Female,"College degree, bachelor, master",Up to 9 years of school,Full time employed,United States,no,Pennsylvania,Other or would rather not say,2.0,Yes,Life carries on as usual,4.0,0.0,Program A,,Yes,4.0,4.0,3.0,,4.0,1.0,3.0,2.0,5.0,3.0,1.0,1.0,,9.0,9.0,8.0,5.0,3.0,9.0,8.0,9.0,5.0,5.0,5.0,5.0,5.0,5.0,5.0,5.0,5.0,3.0,3.0,2.0,5.0,2.0,4.0,6.0,6.0,2.0,3.0,5.0,4.0,1.0,6.0,6.0,5.0,2.0,6.0,5.0,2.0,5.0,99.0,2.0,5.0,5.0,2.0,99.0,5.0,4.0,5.0,5.0,6.0,2.0,2.0,2.0,99.0,6.0,4.0,2.0,2.0,5.0,99.0,,5.0,5.0,5.0,5.0,5.0,5.0,5.0,5.0,5.0,5.0,5.0,2.0,5.0,2.0,5.0,5.0,5.0,5.0,5.0,5.0,4.0,5.0,5.0,5.0,5.0,5.0,,2.0,2.0,2.0,2.0,2.0,2.0,,3.222222,1.0,3.333333,5.666667,4.0,6.0,5.333333,5.0
108799,674,2020-03-30 08:37:49,EN,43,Female,"Some College, short continuing education or equivalent",College degree,Full time employed,United States,no,Michigan,Married/cohabiting,0.0,Yes,Isolated,1.0,0.0,Program A,,No,3.0,3.0,5.0,4.0,2.0,3.0,4.0,3.0,5.0,3.0,1.0,1.0,1.0,7.0,9.0,4.0,4.0,7.0,3.0,8.0,4.0,1.0,1.0,1.0,1.0,1.0,0.0,5.0,5.0,6.0,2.0,3.0,2.0,5.0,4.0,5.0,5.0,5.0,1.0,5.0,6.0,6.0,1.0,5.0,6.0,5.0,3.0,6.0,6.0,99.0,99.0,6.0,4.0,2.0,99.0,6.0,99.0,5.0,2.0,6.0,5.0,6.0,99.0,2.0,2.0,2.0,3.0,6.0,5.0,3.0,5.0,5.0,,5.0,5.0,5.0,5.0,6.0,5.0,5.0,6.0,5.0,5.0,5.0,5.0,2.0,1.0,6.0,5.0,2.0,1.0,5.0,5.0,5.0,5.0,5.0,5.0,1.0,6.0,,5.0,5.0,5.0,5.0,5.0,1.0,,3.3,1.0,3.666667,5.333333,5.666667,5.666667,5.0,5.2
108807,660,2020-03-30 08:34:00,EN,27,Female,"College degree, bachelor, master",Up to 12 years of school,Part time employed,United States,no,Virginia,Married/cohabiting,0.0,Yes,Isolated,1.0,0.0,,Program C,No,3.0,2.0,3.0,3.0,4.0,2.0,3.0,3.0,2.0,2.0,2.0,3.0,3.0,5.0,7.0,1.0,6.0,7.0,4.0,10.0,1.0,4.0,4.0,5.0,6.0,5.0,2.0,6.0,6.0,6.0,1.0,2.0,4.0,4.0,2.0,4.0,5.0,4.0,4.0,3.0,5.0,4.0,5.0,4.0,5.0,5.0,2.0,5.0,6.0,5.0,99.0,6.0,4.0,5.0,99.0,4.0,99.0,2.0,3.0,4.0,4.0,5.0,2.0,3.0,4.0,4.0,5.0,5.0,4.0,3.0,4.0,3.0,,5.0,5.0,5.0,5.0,5.0,5.0,5.0,6.0,5.0,5.0,2.0,1.0,6.0,1.0,5.0,4.0,4.0,5.0,6.0,5.0,5.0,6.0,4.0,6.0,1.0,4.0,,2.0,4.0,4.0,3.0,4.0,1.0,,2.5,2.666667,3.0,4.0,4.0,3.666667,5.0,5.1
108830,26303,2020-03-30 15:33:41,SCU,62,Female,"College degree, bachelor, master",College degree,Full time employed,United States,no,Cuba,Married/cohabiting,1.0,Yes,Isolated,2.0,0.0,Program A,,No,5.0,2.0,2.0,4.0,4.0,3.0,4.0,1.0,1.0,1.0,1.0,2.0,1.0,5.0,7.0,1.0,4.0,3.0,4.0,7.0,4.0,4.0,5.0,4.0,6.0,6.0,1.0,5.0,5.0,5.0,2.0,2.0,5.0,2.0,2.0,5.0,4.0,4.0,2.0,2.0,6.0,2.0,2.0,5.0,5.0,5.0,2.0,5.0,2.0,2.0,2.0,6.0,2.0,4.0,2.0,2.0,2.0,6.0,6.0,4.0,4.0,5.0,4.0,4.0,2.0,2.0,2.0,2.0,2.0,2.0,5.0,2.0,,6.0,6.0,4.0,6.0,6.0,5.0,6.0,6.0,6.0,6.0,2.0,4.0,5.0,1.0,5.0,4.0,1.0,1.0,2.0,5.0,2.0,3.0,5.0,5.0,5.0,5.0,,6.0,5.0,5.0,2.0,5.0,3.0,"Estoy asegurada que como en el caso de la coronavirus, el gobierno no nos puede proteger contra los cambios climáticos ni las armas nucleares",2.5,1.333333,2.0,4.333333,3.333333,5.0,5.0,5.7
108838,1146,2020-03-30 08:32:41,SCU,62,Female,"Some College, short continuing education or equivalent",Up to 9 years of school,Full time employed,United States,no,,Married/cohabiting,0.0,Yes,Isolated,2.0,0.0,,Program D,Not sure,2.0,1.0,2.0,1.0,2.0,1.0,2.0,4.0,1.0,2.0,1.0,1.0,1.0,8.0,7.0,9.0,6.0,5.0,7.0,6.0,9.0,6.0,6.0,6.0,6.0,6.0,0.0,6.0,6.0,6.0,2.0,5.0,5.0,6.0,2.0,6.0,6.0,6.0,6.0,5.0,5.0,3.0,2.0,3.0,6.0,6.0,6.0,6.0,6.0,6.0,5.0,6.0,6.0,1.0,6.0,5.0,1.0,5.0,5.0,6.0,6.0,6.0,6.0,4.0,6.0,1.0,2.0,5.0,1.0,3.0,5.0,5.0,,4.0,4.0,4.0,5.0,5.0,5.0,6.0,5.0,5.0,5.0,4.0,2.0,3.0,2.0,4.0,5.0,3.0,2.0,6.0,6.0,5.0,4.0,5.0,4.0,6.0,5.0,,5.0,5.0,5.0,5.0,5.0,5.0,,2.4,1.0,3.0,4.333333,4.333333,4.666667,4.333333,4.8
108839,1576,2020-03-30 08:39:24,SCU,57,Female,PhD/Doctorate,Up to 12 years of school,Retired,United States,no,Virginia,Single,1.0,Yes,Isolated,2.0,0.0,,Program C,Yes,2.0,4.0,3.0,5.0,5.0,5.0,4.0,5.0,2.0,2.0,2.0,2.0,2.0,8.0,9.0,6.0,6.0,4.0,6.0,8.0,4.0,2.0,3.0,2.0,5.0,5.0,1.0,5.0,6.0,6.0,2.0,4.0,4.0,5.0,5.0,5.0,4.0,2.0,5.0,5.0,5.0,5.0,2.0,2.0,5.0,6.0,2.0,6.0,3.0,2.0,4.0,2.0,4.0,3.0,3.0,1.0,99.0,6.0,5.0,5.0,5.0,6.0,2.0,3.0,4.0,2.0,2.0,4.0,1.0,1.0,4.0,2.0,,6.0,5.0,5.0,6.0,6.0,6.0,5.0,6.0,5.0,5.0,5.0,5.0,5.0,5.0,5.0,5.0,1.0,1.0,2.0,6.0,5.0,2.0,5.0,6.0,5.0,5.0,,5.0,6.0,2.0,6.0,2.0,5.0,,2.3,2.0,4.0,2.666667,5.0,4.0,5.666667,5.5
108855,129,2020-03-31 08:10:58,SCU,35,Female,"College degree, bachelor, master",Up to 9 years of school,Full time employed,United States,no,,Married/cohabiting,0.0,Yes,Isolated,1.0,0.0,,,,,,,,,,,,,,,,,,,,,,,,,,,,,,,,,,,,,,,,,,,,,,,,,,,,,,,,,,,,,,,,,,,,,,,,,,,,,,,,,,,,,,,,,,,,,,,,,,,,,,,,,,,,,,,,,,,,,,
108858,794,2020-03-30 08:21:11,EN,56,Male,"College degree, bachelor, master",College degree,Full time employed,United States,no,North Carolina,Married/cohabiting,0.0,Yes,Isolated,1.0,0.0,Program A,,Yes,3.0,3.0,3.0,4.0,3.0,2.0,4.0,3.0,3.0,3.0,2.0,3.0,3.0,6.0,9.0,5.0,2.0,8.0,9.0,7.0,3.0,4.0,5.0,5.0,5.0,6.0,1.0,4.0,5.0,5.0,2.0,2.0,5.0,2.0,2.0,5.0,5.0,4.0,4.0,5.0,6.0,5.0,4.0,4.0,5.0,4.0,4.0,5.0,2.0,4.0,2.0,2.0,4.0,3.0,2.0,2.0,2.0,5.0,5.0,5.0,4.0,5.0,4.0,4.0,4.0,4.0,5.0,5.0,5.0,4.0,6.0,4.0,,5.0,5.0,5.0,5.0,5.0,5.0,5.0,5.0,5.0,6.0,3.0,3.0,5.0,4.0,5.0,4.0,4.0,4.0,5.0,5.0,4.0,3.0,4.0,5.0,3.0,3.0,,4.0,5.0,5.0,3.0,5.0,1.0,,2.7,2.666667,2.0,4.0,5.333333,4.0,4.0,5.1
108879,1214,2020-03-30 08:19:41,DA,47,Female,"Some College, short continuing education or equivalent",Up to 9 years of school,Full time employed,United States,yes,,Divorced/widowed,0.0,No,Life carries on with minor changes,1.0,0.0,,Program D,No,1.0,1.0,2.0,5.0,4.0,2.0,5.0,5.0,1.0,1.0,2.0,2.0,4.0,7.0,9.0,8.0,9.0,7.0,8.0,8.0,8.0,4.0,4.0,4.0,5.0,5.0,5.0,6.0,4.0,3.0,4.0,4.0,5.0,2.0,1.0,6.0,3.0,6.0,2.0,5.0,6.0,5.0,2.0,5.0,5.0,4.0,2.0,6.0,4.0,2.0,5.0,4.0,3.0,5.0,2.0,3.0,99.0,6.0,3.0,4.0,3.0,5.0,2.0,4.0,2.0,5.0,5.0,4.0,2.0,1.0,6.0,99.0,,5.0,5.0,5.0,5.0,6.0,5.0,5.0,5.0,5.0,6.0,5.0,4.0,6.0,5.0,5.0,4.0,1.0,1.0,5.0,5.0,5.0,5.0,5.0,4.0,4.0,5.0,,2.0,4.0,5.0,5.0,2.0,5.0,,1.3,2.666667,1.333333,4.666667,5.333333,5.0,5.0,5.2
108896,902,2020-03-30 07:59:51,SCU,57,Male,PhD/Doctorate,PhD/Doctorate,Retired,United States,no,Virginia,Married/cohabiting,1.0,Yes,Isolated,2.0,0.0,,Program C,No,4.0,3.0,3.0,4.0,5.0,2.0,5.0,4.0,4.0,1.0,2.0,1.0,4.0,7.0,8.0,3.0,3.0,4.0,4.0,8.0,3.0,4.0,5.0,5.0,6.0,6.0,3.0,6.0,5.0,5.0,2.0,2.0,5.0,3.0,3.0,6.0,6.0,6.0,2.0,6.0,6.0,5.0,4.0,2.0,5.0,2.0,2.0,3.0,99.0,,5.0,99.0,4.0,4.0,1.0,1.0,99.0,6.0,2.0,4.0,3.0,5.0,99.0,2.0,3.0,3.0,3.0,2.0,2.0,1.0,3.0,5.0,,5.0,5.0,6.0,6.0,6.0,5.0,6.0,6.0,5.0,6.0,2.0,5.0,5.0,5.0,5.0,5.0,5.0,5.0,5.0,6.0,4.0,4.0,1.0,5.0,1.0,4.0,,6.0,5.0,4.0,4.0,5.0,2.0,,2.3,2.333333,2.333333,5.666667,5.666667,3.333333,3.333333,5.6
108933,1472,2020-03-30 07:25:30,EN,59,Female,"College degree, bachelor, master",Up to 9 years of school,Retired,United States,no,North Carolina,Single,0.0,Yes,Life carries on with minor changes,0.0,0.0,Program A,,No,3.0,3.0,5.0,4.0,4.0,3.0,4.0,4.0,3.0,3.0,2.0,1.0,2.0,4.0,10.0,1.0,2.0,3.0,1.0,7.0,1.0,5.0,5.0,5.0,6.0,5.0,0.0,6.0,6.0,6.0,1.0,1.0,4.0,5.0,6.0,5.0,4.0,2.0,5.0,6.0,5.0,4.0,1.0,5.0,6.0,3.0,2.0,5.0,2.0,99.0,99.0,99.0,5.0,3.0,1.0,99.0,99.0,5.0,2.0,4.0,4.0,6.0,99.0,6.0,2.0,2.0,2.0,99.0,2.0,1.0,5.0,4.0,,1.0,4.0,5.0,5.0,5.0,5.0,5.0,5.0,5.0,6.0,1.0,2.0,5.0,1.0,1.0,5.0,1.0,2.0,5.0,1.0,5.0,1.0,2.0,5.0,4.0,1.0,,1.0,5.0,6.0,2.0,4.0,1.0,Increased anxiety. Which effects an already weakened immune system.,2.8,1.666667,4.333333,2.666667,5.0,5.666667,4.333333,4.6
